BC3 with lattice parameter 5.174Ang, len
   1.00000000000000     
     5.1747137496118549    0.0000000000000009    0.0000000000000000
     2.5873568748059275    4.4801650874384711    0.0000000000000000
     0.0000000000000000    0.0000000000000000   11.0444119142587489
   B    C 
     2     6
Direct
  0.1746030302207216  0.1745666492609133 -0.0000000000000000
  0.5078954103452857  0.5079818890117918 -0.0000000000000000
 -0.0001193740106403 -0.0000105947255249 -0.0000000000000000
  0.5239026784385216 -0.0000105947255249 -0.0000000000000000
  0.6825453163220423  0.1586820770582726 -0.0000000000000000
 -0.0000468757560416  0.5238664612144326  0.0000000000000000
  0.1585957621274788  0.6825591329982305 -0.0000000000000000
  0.6826178145766476  0.6825591329982305  0.0000000000000000
 
  0.00000000E+00  0.00000000E+00  0.00000000E+00
  0.00000000E+00  0.00000000E+00  0.00000000E+00
  0.00000000E+00  0.00000000E+00  0.00000000E+00
  0.00000000E+00  0.00000000E+00  0.00000000E+00
  0.00000000E+00  0.00000000E+00  0.00000000E+00
  0.00000000E+00  0.00000000E+00  0.00000000E+00
  0.00000000E+00  0.00000000E+00  0.00000000E+00
  0.00000000E+00  0.00000000E+00  0.00000000E+00
