BC3 with lattice parameter 5.174Ang, len
   1.00000000000000     
     5.1740000000000004    0.0000000000000000    0.0000000000000000
     2.5870000000000002    4.4809999999999999    0.0000000000000000
     0.0000000000000000    0.0000000000000000   20.0000000000000000
   B    C 
     2     6
Direct
  0.1746227492891627  0.1745272111240309 -0.0000000000000000
  0.5078756912768444  0.5080213271486745  0.0000000000000000
 -0.0013312274997465 -0.0010304274810868  0.0000000000000000
  0.5261343646831899 -0.0010304274810868 -0.0000000000000000
  0.6837560022636049  0.1562607051751465  0.0000000000000000
  0.9987424383023955  0.5262878330975588 -0.0000000000000000
  0.1563640758828104  0.6835789657537921  0.0000000000000000
  0.6838296680657542  0.6835789657537921 -0.0000000000000000
 
  0.00000000E+00  0.00000000E+00  0.00000000E+00
  0.00000000E+00  0.00000000E+00  0.00000000E+00
  0.00000000E+00  0.00000000E+00  0.00000000E+00
  0.00000000E+00  0.00000000E+00  0.00000000E+00
  0.00000000E+00  0.00000000E+00  0.00000000E+00
  0.00000000E+00  0.00000000E+00  0.00000000E+00
  0.00000000E+00  0.00000000E+00  0.00000000E+00
  0.00000000E+00  0.00000000E+00  0.00000000E+00
