#### Created by Lu Niu, LukeNiu@outlook.com, Apr 19, 2023

## Project name
SYSTEM = BC3 Practice

## Start parameters for this Run
ISTART = 0
ICHARG = 2

## Electronic optimization
PREC = Normal
# Defaults from POTCAR
ENCUT = 520
# Alorithm for electron optimization, can be also FAST or ALL
ALGO  =  Normal
# of ELM steps, sometimes default is too small
NELM = 200
# Stopping-criterion for ELM
EDIFF = 1E-6
# Broadening and DOS related values
SIGMA = 0.05
ISMEAR = 0

## Ionic relaxation
# stopping-criterion for IOM (all forces smaller 1E-2)
EDIFFG = -1E-02
# Number of steps for IOM   
NSW = 20
# CG for ions, often 1 (RMM-DISS) is faster    
IBRION = 2
# Step for ionic-motion (for MD in fs)
POTIM = .5

# Performance optimization
# The number of groups made, each group working on one set of k-points 
KPAR = 4
# How many cores handling one orbital
NCORE = 4
# Real space projection; slightly less accurate but faster 
LREAL = A      
