K-points for BC3
0
Gamma
12  12  1
0   0   0