BC3 with lattice parameter 5.174Ang, len
   1.00000000000000     
     4.4808484340251500    2.5870188517385104    0.0000000000000000
    -4.4808484340251500    2.5870188517385104    0.0000000000000000
     0.0000000000000000    0.0000000000000000    8.5202213998397571
   B    C 
     2     6
Direct
  0.3333330000000032  0.6666659999999993  0.2500000000000000
  0.6666659999999993  0.3333330000000032  0.2500000000000000
  0.1586912421775679  0.3173834843876762  0.2500000000000000
  0.3173834843876762  0.1586912421775679  0.2500000000000000
  0.1586912422101037  0.8413077577898989  0.2500000000000000
  0.8413077577898989  0.1586912422101037  0.2500000000000000
  0.6826155156123264  0.8413077578224346  0.2500000000000000
  0.8413077578224346  0.6826155156123264  0.2500000000000000
 
  0.00000000E+00  0.00000000E+00  0.00000000E+00
  0.00000000E+00  0.00000000E+00  0.00000000E+00
  0.00000000E+00  0.00000000E+00  0.00000000E+00
  0.00000000E+00  0.00000000E+00  0.00000000E+00
  0.00000000E+00  0.00000000E+00  0.00000000E+00
  0.00000000E+00  0.00000000E+00  0.00000000E+00
  0.00000000E+00  0.00000000E+00  0.00000000E+00
  0.00000000E+00  0.00000000E+00  0.00000000E+00
