BC3 with lattice parameter 5.174Ang, len
   1.00000000000000     
     5.1735281683421475    0.0000000000000006    0.0000000000000000
     2.5867640841710737    4.4894746351219421    0.0000000000000000
     0.0000000000000000    0.0000000000000000   13.7601545939087231
   B    C 
     2     6
Direct
  0.1741805019833722  0.1754117057356120 -0.0000000000000000
  0.5083179385826351  0.5071368325370931 -0.0000000000000000
  0.0007950309167752 -0.0011023306351409 -0.0000000000000000
  0.5240800094207221 -0.0011023306351409 -0.0000000000000000
  0.6829402040052200  0.1578923016919167 -0.0000000000000000
 -0.0004417634392195  0.5246562365807883  0.0000000000000000
  0.1584184311452783  0.6836508689078463 -0.0000000000000000
  0.6817034096492322  0.6836508689078463  0.0000000000000000
 
  0.00000000E+00  0.00000000E+00  0.00000000E+00
  0.00000000E+00  0.00000000E+00  0.00000000E+00
  0.00000000E+00  0.00000000E+00  0.00000000E+00
  0.00000000E+00  0.00000000E+00  0.00000000E+00
  0.00000000E+00  0.00000000E+00  0.00000000E+00
  0.00000000E+00  0.00000000E+00  0.00000000E+00
  0.00000000E+00  0.00000000E+00  0.00000000E+00
  0.00000000E+00  0.00000000E+00  0.00000000E+00
