BC3 with lattice parameter 5.174Ang, len
   1.00000000000000     
     5.1732549898990321    0.0000000000000006    0.0000000000000000
     2.5866274949495160    4.4896756904247734    0.0000000000000000
     0.0000000000000000    0.0000000000000000   13.6496493823053555
   B    C 
     2     6
Direct
  0.1741460839593232  0.1754805417837100 -0.0000000000000000
  0.5083523566066841  0.5070679964889951 -0.0000000000000000
  0.0008053511501774 -0.0010733810903563 -0.0000000000000000
  0.5240407396425353 -0.0010733810903563 -0.0000000000000000
  0.6829657805440845  0.1578411486141878 -0.0000000000000000
 -0.0004673399780839  0.5247073896585172  0.0000000000000000
  0.1584577009234651  0.6836219193630617 -0.0000000000000000
  0.6816930894158300  0.6836219193630617  0.0000000000000000
 
  0.00000000E+00  0.00000000E+00  0.00000000E+00
  0.00000000E+00  0.00000000E+00  0.00000000E+00
  0.00000000E+00  0.00000000E+00  0.00000000E+00
  0.00000000E+00  0.00000000E+00  0.00000000E+00
  0.00000000E+00  0.00000000E+00  0.00000000E+00
  0.00000000E+00  0.00000000E+00  0.00000000E+00
  0.00000000E+00  0.00000000E+00  0.00000000E+00
  0.00000000E+00  0.00000000E+00  0.00000000E+00
