BC3 with lattice parameter 5.174Ang, len
   1.00000000000000     
     5.1724354545696869    0.0000000000000007    0.0000000000000000
     2.5862177272848434    4.4902788563332656    0.0000000000000000
     0.0000000000000000    0.0000000000000000   13.3181337474952510
   B    C 
     2     6
Direct
  0.1740428345110690  0.1756870406802184 -0.0000000000000000
  0.5084556060549383  0.5068614975924867 -0.0000000000000000
  0.0008363177229673 -0.0009865363452319 -0.0000000000000000
  0.5239229283246210 -0.0009865363452319 -0.0000000000000000
  0.6830425067245953  0.1576876962531663 -0.0000000000000000
 -0.0005440661585947  0.5248608420195388  0.0000000000000000
  0.1585755122413794  0.6835350746179373 -0.0000000000000000
  0.6816621228430401  0.6835350746179373  0.0000000000000000
 
  0.00000000E+00  0.00000000E+00  0.00000000E+00
  0.00000000E+00  0.00000000E+00  0.00000000E+00
  0.00000000E+00  0.00000000E+00  0.00000000E+00
  0.00000000E+00  0.00000000E+00  0.00000000E+00
  0.00000000E+00  0.00000000E+00  0.00000000E+00
  0.00000000E+00  0.00000000E+00  0.00000000E+00
  0.00000000E+00  0.00000000E+00  0.00000000E+00
  0.00000000E+00  0.00000000E+00  0.00000000E+00
