BC3 with lattice parameter 5.174Ang, len
   1.00000000000000     
     5.1707963839109956    0.0000000000000007    0.0000000000000000
     2.5853981919554978    4.4914851881502518    0.0000000000000000
     0.0000000000000000    0.0000000000000000   12.6551024778750403
   B    C 
     2     6
Direct
  0.1738363633529480  0.1760999829964605 -0.0000000000000000
  0.5086620772130593  0.5064485552762447 -0.0000000000000000
  0.0008982861069360 -0.0008128701861797 -0.0000000000000000
  0.5236872937816001 -0.0008128701861797 -0.0000000000000000
  0.6831959384728140  0.1573808327567288 -0.0000000000000000
 -0.0006974979068134  0.5251677055159762  0.0000000000000000
  0.1588111467844002  0.6833614084588852 -0.0000000000000000
  0.6816001544590714  0.6833614084588852  0.0000000000000000
 
  0.00000000E+00  0.00000000E+00  0.00000000E+00
  0.00000000E+00  0.00000000E+00  0.00000000E+00
  0.00000000E+00  0.00000000E+00  0.00000000E+00
  0.00000000E+00  0.00000000E+00  0.00000000E+00
  0.00000000E+00  0.00000000E+00  0.00000000E+00
  0.00000000E+00  0.00000000E+00  0.00000000E+00
  0.00000000E+00  0.00000000E+00  0.00000000E+00
  0.00000000E+00  0.00000000E+00  0.00000000E+00
