BC3 with lattice parameter 5.174Ang, len
   1.00000000000000     
     5.1710437794278974    0.0000000000000000    0.0000000000000000
     2.5855218897139487    4.4797303950978300    0.0000000000000000
     0.0000000000000000    0.0000000000000000   19.6396072512497710
   B    C 
     2     6
Direct
  0.1747241070700008  0.1743244955623549 -0.0000000000000000
  0.5077743334960066  0.5082240427103503 -0.0000000000000000
 -0.0005730647608722  0.0004202333710858 -0.0000000000000000
  0.5239255410921430  0.0004202333710858 -0.0000000000000000
  0.6824578010980010  0.1588571075063545 -0.0000000000000000
  0.0000406394679994  0.5236914307663505  0.0000000000000000
  0.1585728994738574  0.6821283049016196 -0.0000000000000000
  0.6830715053268797  0.6821283049016196  0.0000000000000000
 
  0.00000000E+00  0.00000000E+00  0.00000000E+00
  0.00000000E+00  0.00000000E+00  0.00000000E+00
  0.00000000E+00  0.00000000E+00  0.00000000E+00
  0.00000000E+00  0.00000000E+00  0.00000000E+00
  0.00000000E+00  0.00000000E+00  0.00000000E+00
  0.00000000E+00  0.00000000E+00  0.00000000E+00
  0.00000000E+00  0.00000000E+00  0.00000000E+00
  0.00000000E+00  0.00000000E+00  0.00000000E+00
