BC3 with lattice parameter 5.174Ang, len
   1.00000000000000     
     5.1720214342505759    0.0000000000000000    0.0000000000000000
     2.5860107171252880    4.4794329273594711    0.0000000000000000
     0.0000000000000000    0.0000000000000000   19.4992096172355716
   B    C 
     2     6
Direct
  0.1747659171451451  0.1742408754120663 -0.0000000000000000
  0.5077325234208623  0.5083076628606389 -0.0000000000000000
 -0.0005654677796614  0.0003600923400392 -0.0000000000000000
  0.5239780851419787  0.0003600923400392 -0.0000000000000000
  0.6823591050278797  0.1590544996465974 -0.0000000000000000
  0.0001393355381209  0.5234940386261075  0.0000000000000000
  0.1585203554240217  0.6821884459326661 -0.0000000000000000
  0.6830639083456688  0.6821884459326661  0.0000000000000000
 
  0.00000000E+00  0.00000000E+00  0.00000000E+00
  0.00000000E+00  0.00000000E+00  0.00000000E+00
  0.00000000E+00  0.00000000E+00  0.00000000E+00
  0.00000000E+00  0.00000000E+00  0.00000000E+00
  0.00000000E+00  0.00000000E+00  0.00000000E+00
  0.00000000E+00  0.00000000E+00  0.00000000E+00
  0.00000000E+00  0.00000000E+00  0.00000000E+00
  0.00000000E+00  0.00000000E+00  0.00000000E+00
