BC3 with lattice parameter 5.174Ang, len
   1.00000000000000     
     5.1757377755109060    0.0000000000000002    0.0000000000000000
     2.5878688877554530    4.4802218120707922    0.0000000000000000
     0.0000000000000000    0.0000000000000000   17.7232246992933824
   B    C 
     2     6
Direct
  0.1753561336734447  0.1730604423554670 -0.0000000000000000
  0.5071423068925626  0.5094880959172381 -0.0000000000000000
 -0.0005245952368269 -0.0000793554765856 -0.0000000000000000
  0.5243766604157688 -0.0000793554765856 -0.0000000000000000
  0.6823173783635169  0.1591379529753230 -0.0000000000000000
  0.0001810622024837  0.5234105852973819  0.0000000000000000
  0.1581217801502315  0.6826278937492910 -0.0000000000000000
  0.6830230358028342  0.6826278937492910  0.0000000000000000
 
  0.00000000E+00  0.00000000E+00  0.00000000E+00
  0.00000000E+00  0.00000000E+00  0.00000000E+00
  0.00000000E+00  0.00000000E+00  0.00000000E+00
  0.00000000E+00  0.00000000E+00  0.00000000E+00
  0.00000000E+00  0.00000000E+00  0.00000000E+00
  0.00000000E+00  0.00000000E+00  0.00000000E+00
  0.00000000E+00  0.00000000E+00  0.00000000E+00
  0.00000000E+00  0.00000000E+00  0.00000000E+00
