BC3 with lattice parameter 5.174Ang, len
   1.00000000000000     
     5.1768340272314086    0.0000000000000001    0.0000000000000000
     2.5884170136157043    4.4782275552604780    0.0000000000000000
     0.0000000000000000    0.0000000000000000   18.6301338930531308
   B    C 
     2     6
Direct
  0.1750544786543160  0.1736637523937244 -0.0000000000000000
  0.5074439619116914  0.5088847858789807 -0.0000000000000000
 -0.0005369137863893  0.0000373677100055 -0.0000000000000000
  0.5242722557787401  0.0000373677100055 -0.0000000000000000
  0.6819271361445136  0.1599184374133295 -0.0000000000000000
  0.0005713044214869  0.5226301008593754  0.0000000000000000
  0.1582261847872602  0.6825111705626998 -0.0000000000000000
  0.6830353543523965  0.6825111705626998  0.0000000000000000
 
  0.00000000E+00  0.00000000E+00  0.00000000E+00
  0.00000000E+00  0.00000000E+00  0.00000000E+00
  0.00000000E+00  0.00000000E+00  0.00000000E+00
  0.00000000E+00  0.00000000E+00  0.00000000E+00
  0.00000000E+00  0.00000000E+00  0.00000000E+00
  0.00000000E+00  0.00000000E+00  0.00000000E+00
  0.00000000E+00  0.00000000E+00  0.00000000E+00
  0.00000000E+00  0.00000000E+00  0.00000000E+00
