BC3 with lattice parameter 5.174Ang, len
   1.00000000000000     
     5.1758791185955904    0.0000000000000009    0.0000000000000000
     2.5879395592977952    4.4783792427312372    0.0000000000000000
     0.0000000000000000    0.0000000000000000   11.0635330506616985
   B    C 
     2     6
Direct
  0.1744229868801692  0.1749267359420179 -0.0000000000000000
  0.5080754536858381  0.5076218023306872 -0.0000000000000000
  0.0000727952813737 -0.0000055724031344 -0.0000000000000000
  0.5237054868241170 -0.0000055724031344 -0.0000000000000000
  0.6826311437007998  0.1585104223007577 -0.0000000000000000
 -0.0001327031347990  0.5240381159719475  0.0000000000000000
  0.1587929537418833  0.6825541106758399 -0.0000000000000000
  0.6824256452846336  0.6825541106758399  0.0000000000000000
 
  0.00000000E+00  0.00000000E+00  0.00000000E+00
  0.00000000E+00  0.00000000E+00  0.00000000E+00
  0.00000000E+00  0.00000000E+00  0.00000000E+00
  0.00000000E+00  0.00000000E+00  0.00000000E+00
  0.00000000E+00  0.00000000E+00  0.00000000E+00
  0.00000000E+00  0.00000000E+00  0.00000000E+00
  0.00000000E+00  0.00000000E+00  0.00000000E+00
  0.00000000E+00  0.00000000E+00  0.00000000E+00
