BC3 with lattice parameter 5.174Ang, len
   1.00000000000000     
     5.1715000183451476    0.0000000000000000    0.0000000000000000
     2.5857500091725738    4.4795915768199297    0.0000000000000000
     0.0000000000000000    0.0000000000000000   19.5740883553764782
   B    C 
     2     6
Direct
  0.1747436182080659  0.1742854732862247 -0.0000000000000000
  0.5077548223579414  0.5082630649864806 -0.0000000000000000
 -0.0005695200211202  0.0003921678879198 -0.0000000000000000
  0.5239500618355569  0.0003921678879198 -0.0000000000000000
  0.6824117434756701  0.1589492227510164 -0.0000000000000000
  0.0000866970903304  0.5235993155216886  0.0000000000000000
  0.1585483787304435  0.6821563703847855 -0.0000000000000000
  0.6830679605871276  0.6821563703847855  0.0000000000000000
 
  0.00000000E+00  0.00000000E+00  0.00000000E+00
  0.00000000E+00  0.00000000E+00  0.00000000E+00
  0.00000000E+00  0.00000000E+00  0.00000000E+00
  0.00000000E+00  0.00000000E+00  0.00000000E+00
  0.00000000E+00  0.00000000E+00  0.00000000E+00
  0.00000000E+00  0.00000000E+00  0.00000000E+00
  0.00000000E+00  0.00000000E+00  0.00000000E+00
  0.00000000E+00  0.00000000E+00  0.00000000E+00
