BC3 with lattice parameter 5.174Ang, len
   1.00000000000000     
     5.1720420332084194    0.0000000000000009    0.0000000000000000
     2.5860210166042097    4.4771441067095381    0.0000000000000000
     0.0000000000000000    0.0000000000000000   11.1200191611539179
   B    C 
     2     6
Direct
  0.1740696179237893  0.1756334738547778 -0.0000000000000000
  0.5084288226422180  0.5069150644179273 -0.0000000000000000
  0.0004541972417506  0.0000568565400739 -0.0000000000000000
  0.5232616559205319  0.0000568565400739 -0.0000000000000000
  0.6829840330300907  0.1578046436421758 -0.0000000000000000
 -0.0004855924640900  0.5247438946305294  0.0000000000000000
  0.1592367846454684  0.6824916817326316 -0.0000000000000000
  0.6820442433242567  0.6824916817326316  0.0000000000000000
 
  0.00000000E+00  0.00000000E+00  0.00000000E+00
  0.00000000E+00  0.00000000E+00  0.00000000E+00
  0.00000000E+00  0.00000000E+00  0.00000000E+00
  0.00000000E+00  0.00000000E+00  0.00000000E+00
  0.00000000E+00  0.00000000E+00  0.00000000E+00
  0.00000000E+00  0.00000000E+00  0.00000000E+00
  0.00000000E+00  0.00000000E+00  0.00000000E+00
  0.00000000E+00  0.00000000E+00  0.00000000E+00
