BC3 with lattice parameter 5.174Ang, len
   1.00000000000000     
     5.1747908010100092    0.0000000000000004    0.0000000000000000
     2.5873954005050046    4.4841873076641425    0.0000000000000000
     0.0000000000000000    0.0000000000000000   16.0247660826999585
   B    C 
     2     6
Direct
  0.1748520934095335  0.1740685228832893 -0.0000000000000000
  0.5076463471564737  0.5084800153894158 -0.0000000000000000
  0.0000410168555083 -0.0005179457878598 -0.0000000000000000
  0.5242496386347080 -0.0005179457878598 -0.0000000000000000
  0.6825844085937035  0.1586038925149499 -0.0000000000000000
 -0.0000859680277029  0.5239446457577551  0.0000000000000000
  0.1582488019312923  0.6830664840605652 -0.0000000000000000
  0.6824574237104991  0.6830664840605652  0.0000000000000000
 
  0.00000000E+00  0.00000000E+00  0.00000000E+00
  0.00000000E+00  0.00000000E+00  0.00000000E+00
  0.00000000E+00  0.00000000E+00  0.00000000E+00
  0.00000000E+00  0.00000000E+00  0.00000000E+00
  0.00000000E+00  0.00000000E+00  0.00000000E+00
  0.00000000E+00  0.00000000E+00  0.00000000E+00
  0.00000000E+00  0.00000000E+00  0.00000000E+00
  0.00000000E+00  0.00000000E+00  0.00000000E+00
