BC3 with lattice parameter 5.174Ang, len
   1.00000000000000     
     5.1755564521645638    0.0000000000000002    0.0000000000000000
     2.5877782260822819    4.4802304158841215    0.0000000000000000
     0.0000000000000000    0.0000000000000000   17.7042875674782429
   B    C 
     2     6
Direct
  0.1755155303884245  0.1727416489255075 -0.0000000000000000
  0.5069829101775828  0.5098068893471976 -0.0000000000000000
 -0.0006020657721664 -0.0000502554614278 -0.0000000000000000
  0.5244250309359506 -0.0000502554614278 -0.0000000000000000
  0.6823919098255999  0.1589888900511570 -0.0000000000000000
  0.0001065307404007  0.5235596482215479  0.0000000000000000
  0.1580734096300497  0.6825987937341331 -0.0000000000000000
  0.6831005063381737  0.6825987937341331  0.0000000000000000
 
  0.00000000E+00  0.00000000E+00  0.00000000E+00
  0.00000000E+00  0.00000000E+00  0.00000000E+00
  0.00000000E+00  0.00000000E+00  0.00000000E+00
  0.00000000E+00  0.00000000E+00  0.00000000E+00
  0.00000000E+00  0.00000000E+00  0.00000000E+00
  0.00000000E+00  0.00000000E+00  0.00000000E+00
  0.00000000E+00  0.00000000E+00  0.00000000E+00
  0.00000000E+00  0.00000000E+00  0.00000000E+00
