BC3 with lattice parameter 5.174Ang, len
   1.00000000000000     
     5.1730642660614317    0.0000000000000001    0.0000000000000000
     2.5865321330307158    4.4791156284385556    0.0000000000000000
     0.0000000000000000    0.0000000000000000   19.3494521409537619
   B    C 
     2     6
Direct
  0.1748105165988402  0.1741516765046762 -0.0000000000000000
  0.5076879239671672  0.5083968617680290 -0.0000000000000000
 -0.0005573597440780  0.0002959389722187 -0.0000000000000000
  0.5240341304742158  0.0002959389722187 -0.0000000000000000
  0.6822538244036743  0.1592650608950081 -0.0000000000000000
  0.0002446161623262  0.5232834773776969  0.0000000000000000
  0.1584643100917846  0.6822525993004867 -0.0000000000000000
  0.6830558003100854  0.6822525993004867  0.0000000000000000
 
  0.00000000E+00  0.00000000E+00  0.00000000E+00
  0.00000000E+00  0.00000000E+00  0.00000000E+00
  0.00000000E+00  0.00000000E+00  0.00000000E+00
  0.00000000E+00  0.00000000E+00  0.00000000E+00
  0.00000000E+00  0.00000000E+00  0.00000000E+00
  0.00000000E+00  0.00000000E+00  0.00000000E+00
  0.00000000E+00  0.00000000E+00  0.00000000E+00
  0.00000000E+00  0.00000000E+00  0.00000000E+00
