BC3 with lattice parameter 5.174Ang, len
   1.00000000000000     
     5.1751565951706091    0.0000000000000009    0.0000000000000000
     2.5875782975853046    4.4760367043910883    0.0000000000000000
     0.0000000000000000    0.0000000000000000   11.0862738539339549
   B    C 
     2     6
Direct
  0.1742232029928080  0.1753263037167405 -0.0000000000000000
  0.5082752375731994  0.5072222345559646 -0.0000000000000000
  0.0003522145203604 -0.0000657491953192 -0.0000000000000000
  0.5234862443773152 -0.0000657491953192 -0.0000000000000000
  0.6827445010051267  0.1582837076921037 -0.0000000000000000
 -0.0002460604391260  0.5242648305806015  0.0000000000000000
  0.1590121961886851  0.6826142874680248 -0.0000000000000000
  0.6821462260456469  0.6826142874680248  0.0000000000000000
 
  0.00000000E+00  0.00000000E+00  0.00000000E+00
  0.00000000E+00  0.00000000E+00  0.00000000E+00
  0.00000000E+00  0.00000000E+00  0.00000000E+00
  0.00000000E+00  0.00000000E+00  0.00000000E+00
  0.00000000E+00  0.00000000E+00  0.00000000E+00
  0.00000000E+00  0.00000000E+00  0.00000000E+00
  0.00000000E+00  0.00000000E+00  0.00000000E+00
  0.00000000E+00  0.00000000E+00  0.00000000E+00
