BC3 with lattice parameter 5.174Ang, len
   1.00000000000000     
     5.1740000000000004    0.0000000000000000    0.0000000000000000
     2.5870000000000002    4.4809999999999999    0.0000000000000000
     0.0000000000000000    0.0000000000000000   20.0000000000000000
   B    C 
     2     6
Direct
  0.1745816282905007  0.1746094531213553 -0.0000000000000000
  0.5079168122755070  0.5079390851513500 -0.0000000000000000
 -0.0000544912320570 -0.0000342659563724 -0.0000000000000000
  0.5238614668907858 -0.0000342659563724  0.0000000000000000
  0.6825562225048399  0.1586602646926766  0.0000000000000000
  0.9999422180611605  0.5238882735800284 -0.0000000000000000
  0.1586369736752145  0.6825828042290776 -0.0000000000000000
  0.6825529317980645  0.6825828042290776  0.0000000000000000
 
  0.00000000E+00  0.00000000E+00  0.00000000E+00
  0.00000000E+00  0.00000000E+00  0.00000000E+00
  0.00000000E+00  0.00000000E+00  0.00000000E+00
  0.00000000E+00  0.00000000E+00  0.00000000E+00
  0.00000000E+00  0.00000000E+00  0.00000000E+00
  0.00000000E+00  0.00000000E+00  0.00000000E+00
  0.00000000E+00  0.00000000E+00  0.00000000E+00
  0.00000000E+00  0.00000000E+00  0.00000000E+00
