generated by phonopy
   1.0
    26.8850906041508999   15.5221131104310626    0.0000000000000000
   -26.8850906041508999   15.5221131104310626    0.0000000000000000
     0.0000000000000000    0.0000000000000000    8.5202213998397571
B C
  72  216
Direct
  0.0555555000000005  0.1111109999999999  0.2500000000000000
  0.2222221666666672  0.1111109999999999  0.2500000000000000
  0.3888888333333339  0.1111109999999999  0.2500000000000000
  0.5555555000000005  0.1111109999999999  0.2500000000000000
  0.7222221666666671  0.1111109999999998  0.2500000000000000
  0.8888888333333338  0.1111109999999999  0.2500000000000000
  0.0555555000000005  0.2777776666666665  0.2500000000000000
  0.2222221666666672  0.2777776666666665  0.2500000000000000
  0.3888888333333338  0.2777776666666665  0.2500000000000000
  0.5555555000000005  0.2777776666666666  0.2500000000000000
  0.7222221666666672  0.2777776666666665  0.2500000000000000
  0.8888888333333338  0.2777776666666665  0.2500000000000000
  0.0555555000000006  0.4444443333333332  0.2500000000000000
  0.2222221666666672  0.4444443333333332  0.2500000000000000
  0.3888888333333339  0.4444443333333332  0.2500000000000000
  0.5555555000000005  0.4444443333333332  0.2500000000000000
  0.7222221666666672  0.4444443333333331  0.2500000000000000
  0.8888888333333338  0.4444443333333332  0.2500000000000000
  0.0555555000000006  0.6111109999999997  0.2500000000000000
  0.2222221666666672  0.6111109999999997  0.2500000000000000
  0.3888888333333338  0.6111109999999997  0.2500000000000000
  0.5555555000000005  0.6111109999999997  0.2500000000000000
  0.7222221666666671  0.6111109999999997  0.2500000000000000
  0.8888888333333339  0.6111109999999998  0.2500000000000000
  0.0555555000000006  0.7777776666666665  0.2500000000000000
  0.2222221666666672  0.7777776666666665  0.2500000000000000
  0.3888888333333338  0.7777776666666665  0.2500000000000000
  0.5555555000000004  0.7777776666666664  0.2500000000000000
  0.7222221666666672  0.7777776666666666  0.2500000000000000
  0.8888888333333338  0.7777776666666665  0.2500000000000000
  0.0555555000000005  0.9444443333333332  0.2500000000000000
  0.2222221666666672  0.9444443333333333  0.2500000000000000
  0.3888888333333338  0.9444443333333332  0.2500000000000000
  0.5555555000000005  0.9444443333333332  0.2500000000000000
  0.7222221666666671  0.9444443333333332  0.2500000000000000
  0.8888888333333338  0.9444443333333332  0.2500000000000000
  0.1111109999999999  0.0555555000000005  0.2500000000000000
  0.2777776666666665  0.0555555000000005  0.2500000000000000
  0.4444443333333332  0.0555555000000006  0.2500000000000000
  0.6111109999999997  0.0555555000000006  0.2500000000000000
  0.7777776666666665  0.0555555000000006  0.2500000000000000
  0.9444443333333332  0.0555555000000005  0.2500000000000000
  0.1111109999999999  0.2222221666666672  0.2500000000000000
  0.2777776666666665  0.2222221666666672  0.2500000000000000
  0.4444443333333332  0.2222221666666672  0.2500000000000000
  0.6111109999999997  0.2222221666666672  0.2500000000000000
  0.7777776666666665  0.2222221666666672  0.2500000000000000
  0.9444443333333333  0.2222221666666672  0.2500000000000000
  0.1111109999999999  0.3888888333333339  0.2500000000000000
  0.2777776666666665  0.3888888333333338  0.2500000000000000
  0.4444443333333332  0.3888888333333339  0.2500000000000000
  0.6111109999999997  0.3888888333333338  0.2500000000000000
  0.7777776666666665  0.3888888333333338  0.2500000000000000
  0.9444443333333332  0.3888888333333338  0.2500000000000000
  0.1111109999999999  0.5555555000000005  0.2500000000000000
  0.2777776666666666  0.5555555000000005  0.2500000000000000
  0.4444443333333332  0.5555555000000005  0.2500000000000000
  0.6111109999999997  0.5555555000000005  0.2500000000000000
  0.7777776666666664  0.5555555000000004  0.2500000000000000
  0.9444443333333332  0.5555555000000005  0.2500000000000000
  0.1111109999999998  0.7222221666666671  0.2500000000000000
  0.2777776666666665  0.7222221666666672  0.2500000000000000
  0.4444443333333331  0.7222221666666672  0.2500000000000000
  0.6111109999999997  0.7222221666666671  0.2500000000000000
  0.7777776666666666  0.7222221666666672  0.2500000000000000
  0.9444443333333332  0.7222221666666671  0.2500000000000000
  0.1111109999999999  0.8888888333333338  0.2500000000000000
  0.2777776666666665  0.8888888333333338  0.2500000000000000
  0.4444443333333332  0.8888888333333338  0.2500000000000000
  0.6111109999999998  0.8888888333333339  0.2500000000000000
  0.7777776666666665  0.8888888333333338  0.2500000000000000
  0.9444443333333332  0.8888888333333338  0.2500000000000000
  0.0264485403629280  0.0532078815724211  0.2503106341744751
  0.1931152070295947  0.0528972473979460  0.2500000000000000
  0.3597818736962612  0.0528972473979460  0.2500000000000000
  0.5264485403629280  0.0528972473979460  0.2500000000000000
  0.6931152070295945  0.0528972473979460  0.2500000000000000
  0.8597818736962612  0.0528972473979461  0.2500000000000000
  0.0264485403629280  0.2195639140646127  0.2500000000000000
  0.1931152070295947  0.2195639140646127  0.2500000000000000
  0.3597818736962613  0.2195639140646127  0.2500000000000000
  0.5264485403629280  0.2195639140646127  0.2500000000000000
  0.6931152070295945  0.2195639140646127  0.2500000000000000
  0.8597818736962612  0.2195639140646128  0.2500000000000000
  0.0264485403629280  0.3862305807312794  0.2500000000000000
  0.1931152070295946  0.3862305807312794  0.2500000000000000
  0.3597818736962612  0.3862305807312794  0.2500000000000000
  0.5264485403629280  0.3862305807312794  0.2500000000000000
  0.6931152070295946  0.3862305807312795  0.2500000000000000
  0.8597818736962612  0.3862305807312794  0.2500000000000000
  0.0264485403629280  0.5528972473979460  0.2500000000000000
  0.1931152070295947  0.5528972473979459  0.2500000000000000
  0.3597818736962613  0.5528972473979460  0.2500000000000000
  0.5264485403629280  0.5528972473979461  0.2500000000000000
  0.6931152070295945  0.5528972473979459  0.2500000000000000
  0.8597818736962614  0.5528972473979460  0.2500000000000000
  0.0264485403629280  0.7195639140646126  0.2500000000000000
  0.1931152070295946  0.7195639140646126  0.2500000000000000
  0.3597818736962612  0.7195639140646126  0.2500000000000000
  0.5264485403629279  0.7195639140646125  0.2500000000000000
  0.6931152070295946  0.7195639140646127  0.2500000000000000
  0.8597818736962612  0.7195639140646126  0.2500000000000000
  0.0264485403629281  0.8862305807312794  0.2500000000000000
  0.1931152070295947  0.8862305807312794  0.2500000000000000
  0.3597818736962613  0.8862305807312794  0.2500000000000000
  0.5264485403629280  0.8862305807312794  0.2500000000000000
  0.6931152070295946  0.8862305807312795  0.2500000000000000
  0.8597818736962612  0.8862305807312794  0.2500000000000000
  0.0528972473979460  0.0264485403629280  0.2500000000000000
  0.2195639140646127  0.0264485403629280  0.2500000000000000
  0.3862305807312794  0.0264485403629280  0.2500000000000000
  0.5528972473979460  0.0264485403629280  0.2500000000000000
  0.7195639140646126  0.0264485403629280  0.2500000000000000
  0.8862305807312794  0.0264485403629281  0.2500000000000000
  0.0528972473979460  0.1931152070295947  0.2500000000000000
  0.2195639140646127  0.1931152070295947  0.2500000000000000
  0.3862305807312794  0.1931152070295946  0.2500000000000000
  0.5528972473979459  0.1931152070295947  0.2500000000000000
  0.7195639140646126  0.1931152070295946  0.2500000000000000
  0.8862305807312794  0.1931152070295947  0.2500000000000000
  0.0528972473979460  0.3597818736962612  0.2500000000000000
  0.2195639140646127  0.3597818736962613  0.2500000000000000
  0.3862305807312794  0.3597818736962612  0.2500000000000000
  0.5528972473979460  0.3597818736962613  0.2500000000000000
  0.7195639140646126  0.3597818736962612  0.2500000000000000
  0.8862305807312794  0.3597818736962613  0.2500000000000000
  0.0528972473979460  0.5264485403629280  0.2500000000000000
  0.2195639140646127  0.5264485403629280  0.2500000000000000
  0.3862305807312794  0.5264485403629280  0.2500000000000000
  0.5528972473979461  0.5264485403629280  0.2500000000000000
  0.7195639140646125  0.5264485403629279  0.2500000000000000
  0.8862305807312794  0.5264485403629280  0.2500000000000000
  0.0528972473979460  0.6931152070295945  0.2500000000000000
  0.2195639140646127  0.6931152070295945  0.2500000000000000
  0.3862305807312795  0.6931152070295946  0.2500000000000000
  0.5528972473979459  0.6931152070295945  0.2500000000000000
  0.7195639140646127  0.6931152070295946  0.2500000000000000
  0.8862305807312795  0.6931152070295946  0.2500000000000000
  0.0528972473979461  0.8597818736962612  0.2500000000000000
  0.2195639140646128  0.8597818736962612  0.2500000000000000
  0.3862305807312794  0.8597818736962612  0.2500000000000000
  0.5528972473979460  0.8597818736962614  0.2500000000000000
  0.7195639140646126  0.8597818736962612  0.2500000000000000
  0.8862305807312794  0.8597818736962612  0.2500000000000000
  0.0264485403683506  0.1402179596316498  0.2500000000000000
  0.1931152070350173  0.1402179596316498  0.2500000000000000
  0.3597818737016839  0.1402179596316498  0.2500000000000000
  0.5264485403683505  0.1402179596316498  0.2500000000000000
  0.6931152070350173  0.1402179596316498  0.2500000000000000
  0.8597818737016838  0.1402179596316498  0.2500000000000000
  0.0264485403683506  0.3068846262983165  0.2500000000000000
  0.1931152070350173  0.3068846262983165  0.2500000000000000
  0.3597818737016840  0.3068846262983165  0.2500000000000000
  0.5264485403683505  0.3068846262983164  0.2500000000000000
  0.6931152070350173  0.3068846262983165  0.2500000000000000
  0.8597818737016840  0.3068846262983165  0.2500000000000000
  0.0264485403683506  0.4735512929649831  0.2500000000000000
  0.1931152070350173  0.4735512929649831  0.2500000000000000
  0.3597818737016840  0.4735512929649832  0.2500000000000000
  0.5264485403683505  0.4735512929649831  0.2500000000000000
  0.6931152070350173  0.4735512929649832  0.2500000000000000
  0.8597818737016838  0.4735512929649830  0.2500000000000000
  0.0264485403683506  0.6402179596316497  0.2500000000000000
  0.1931152070350172  0.6402179596316497  0.2500000000000000
  0.3597818737016839  0.6402179596316497  0.2500000000000000
  0.5264485403683504  0.6402179596316496  0.2500000000000000
  0.6931152070350172  0.6402179596316496  0.2500000000000000
  0.8597818737016840  0.6402179596316497  0.2500000000000000
  0.0264485403683506  0.8068846262983166  0.2500000000000000
  0.1931152070350173  0.8068846262983165  0.2500000000000000
  0.3597818737016840  0.8068846262983165  0.2500000000000000
  0.5264485403683504  0.8068846262983164  0.2500000000000000
  0.6931152070350173  0.8068846262983165  0.2500000000000000
  0.8597818737016840  0.8068846262983165  0.2500000000000000
  0.0264485403683506  0.9735512929649831  0.2500000000000000
  0.1931152070350173  0.9735512929649832  0.2500000000000000
  0.3597818737016839  0.9735512929649831  0.2500000000000000
  0.5264485403683506  0.9735512929649831  0.2500000000000000
  0.6931152070350173  0.9735512929649832  0.2500000000000000
  0.8597818737016839  0.9735512929649831  0.2500000000000000
  0.1402179596316498  0.0264485403683506  0.2500000000000000
  0.3068846262983165  0.0264485403683506  0.2500000000000000
  0.4735512929649831  0.0264485403683506  0.2500000000000000
  0.6402179596316497  0.0264485403683506  0.2500000000000000
  0.8068846262983166  0.0264485403683506  0.2500000000000000
  0.9735512929649831  0.0264485403683506  0.2500000000000000
  0.1402179596316498  0.1931152070350173  0.2500000000000000
  0.3068846262983165  0.1931152070350173  0.2500000000000000
  0.4735512929649831  0.1931152070350173  0.2500000000000000
  0.6402179596316497  0.1931152070350172  0.2500000000000000
  0.8068846262983165  0.1931152070350173  0.2500000000000000
  0.9735512929649832  0.1931152070350173  0.2500000000000000
  0.1402179596316498  0.3597818737016839  0.2500000000000000
  0.3068846262983165  0.3597818737016840  0.2500000000000000
  0.4735512929649832  0.3597818737016840  0.2500000000000000
  0.6402179596316497  0.3597818737016839  0.2500000000000000
  0.8068846262983165  0.3597818737016840  0.2500000000000000
  0.9735512929649831  0.3597818737016839  0.2500000000000000
  0.1402179596316498  0.5264485403683505  0.2500000000000000
  0.3068846262983164  0.5264485403683505  0.2500000000000000
  0.4735512929649831  0.5264485403683505  0.2500000000000000
  0.6402179596316496  0.5264485403683504  0.2500000000000000
  0.8068846262983164  0.5264485403683504  0.2500000000000000
  0.9735512929649831  0.5264485403683506  0.2500000000000000
  0.1402179596316498  0.6931152070350173  0.2500000000000000
  0.3068846262983165  0.6931152070350173  0.2500000000000000
  0.4735512929649832  0.6931152070350173  0.2500000000000000
  0.6402179596316496  0.6931152070350172  0.2500000000000000
  0.8068846262983165  0.6931152070350173  0.2500000000000000
  0.9735512929649832  0.6931152070350173  0.2500000000000000
  0.1402179596316498  0.8597818737016838  0.2500000000000000
  0.3068846262983165  0.8597818737016840  0.2500000000000000
  0.4735512929649830  0.8597818737016838  0.2500000000000000
  0.6402179596316497  0.8597818737016840  0.2500000000000000
  0.8068846262983165  0.8597818737016840  0.2500000000000000
  0.9735512929649831  0.8597818737016839  0.2500000000000000
  0.1137692526020544  0.1402179596370724  0.2500000000000000
  0.2804359192687210  0.1402179596370724  0.2500000000000000
  0.4471025859353877  0.1402179596370725  0.2500000000000000
  0.6137692526020543  0.1402179596370724  0.2500000000000000
  0.7804359192687209  0.1402179596370725  0.2500000000000000
  0.9471025859353877  0.1402179596370725  0.2500000000000000
  0.1137692526020544  0.3068846263037391  0.2500000000000000
  0.2804359192687211  0.3068846263037391  0.2500000000000000
  0.4471025859353877  0.3068846263037390  0.2500000000000000
  0.6137692526020543  0.3068846263037390  0.2500000000000000
  0.7804359192687210  0.3068846263037391  0.2500000000000000
  0.9471025859353877  0.3068846263037391  0.2500000000000000
  0.1137692526020544  0.4735512929704058  0.2500000000000000
  0.2804359192687210  0.4735512929704057  0.2500000000000000
  0.4471025859353877  0.4735512929704058  0.2500000000000000
  0.6137692526020544  0.4735512929704058  0.2500000000000000
  0.7804359192687209  0.4735512929704058  0.2500000000000000
  0.9471025859353877  0.4735512929704058  0.2500000000000000
  0.1137692526020544  0.6402179596370724  0.2500000000000000
  0.2804359192687210  0.6402179596370724  0.2500000000000000
  0.4471025859353877  0.6402179596370725  0.2500000000000000
  0.6137692526020543  0.6402179596370724  0.2500000000000000
  0.7804359192687209  0.6402179596370725  0.2500000000000000
  0.9471025859353877  0.6402179596370725  0.2500000000000000
  0.1137692526020544  0.8068846263037390  0.2500000000000000
  0.2804359192687211  0.8068846263037390  0.2500000000000000
  0.4471025859353877  0.8068846263037390  0.2500000000000000
  0.6137692526020544  0.8068846263037390  0.2500000000000000
  0.7804359192687210  0.8068846263037391  0.2500000000000000
  0.9471025859353877  0.8068846263037390  0.2500000000000000
  0.1137692526020544  0.9735512929704058  0.2500000000000000
  0.2804359192687210  0.9735512929704058  0.2500000000000000
  0.4471025859353877  0.9735512929704058  0.2500000000000000
  0.6137692526020544  0.9735512929704058  0.2500000000000000
  0.7804359192687210  0.9735512929704059  0.2500000000000000
  0.9471025859353877  0.9735512929704058  0.2500000000000000
  0.1402179596370724  0.1137692526020544  0.2500000000000000
  0.3068846263037391  0.1137692526020544  0.2500000000000000
  0.4735512929704058  0.1137692526020544  0.2500000000000000
  0.6402179596370724  0.1137692526020544  0.2500000000000000
  0.8068846263037390  0.1137692526020544  0.2500000000000000
  0.9735512929704058  0.1137692526020544  0.2500000000000000
  0.1402179596370724  0.2804359192687210  0.2500000000000000
  0.3068846263037391  0.2804359192687211  0.2500000000000000
  0.4735512929704057  0.2804359192687210  0.2500000000000000
  0.6402179596370724  0.2804359192687210  0.2500000000000000
  0.8068846263037390  0.2804359192687211  0.2500000000000000
  0.9735512929704058  0.2804359192687210  0.2500000000000000
  0.1402179596370725  0.4471025859353877  0.2500000000000000
  0.3068846263037390  0.4471025859353877  0.2500000000000000
  0.4735512929704058  0.4471025859353877  0.2500000000000000
  0.6402179596370725  0.4471025859353877  0.2500000000000000
  0.8068846263037390  0.4471025859353877  0.2500000000000000
  0.9735512929704058  0.4471025859353877  0.2500000000000000
  0.1402179596370724  0.6137692526020543  0.2500000000000000
  0.3068846263037390  0.6137692526020543  0.2500000000000000
  0.4735512929704058  0.6137692526020544  0.2500000000000000
  0.6402179596370724  0.6137692526020543  0.2500000000000000
  0.8068846263037390  0.6137692526020544  0.2500000000000000
  0.9735512929704058  0.6137692526020544  0.2500000000000000
  0.1402179596370725  0.7804359192687209  0.2500000000000000
  0.3068846263037391  0.7804359192687210  0.2500000000000000
  0.4735512929704058  0.7804359192687209  0.2500000000000000
  0.6402179596370725  0.7804359192687209  0.2500000000000000
  0.8068846263037391  0.7804359192687210  0.2500000000000000
  0.9735512929704059  0.7804359192687210  0.2500000000000000
  0.1402179596370725  0.9471025859353877  0.2500000000000000
  0.3068846263037391  0.9471025859353877  0.2500000000000000
  0.4735512929704058  0.9471025859353877  0.2500000000000000
  0.6402179596370725  0.9471025859353877  0.2500000000000000
  0.8068846263037390  0.9471025859353877  0.2500000000000000
  0.9735512929704058  0.9471025859353877  0.2500000000000000
