K-points for BC3
0
Gamma
16  16  1
0   0   0