fcc Si:
    3.9
    0.5 0.5 0.0
    0.0 0.5 0.5
    0.5 0.0 0.5
    1
cartesian
    0 0 0

# Fcc Si lattice constant of 3.9 ANG, 1 atom per unit cell.
 