BC3 with lattice parameter 5.174Ang, lenght of C-C 1.422Ang, lenght of B-C 1.565 Ang
1.0
5.174   0.000   0.000
2.587   4.481   0.000
0.000   0.000  20.000
    B C
    2 6
Cartesian
1.355   0.7825  0.000   B
3.942   2.276   0.000   B
0.000   0.000   0.000   C
2.710   0.000   0.000   C
3.942   0.711   0.000   C
1.355   2.3475  0.000   C
2.587   3.0585  0.000   C
5.297   3.0585  0.000   C