BC3 with lattice parameter 5.174Ang, len
   1.00000000000000     
     5.1747137496118549    0.0000000000000009    0.0000000000000000
     2.5873568748059275    4.4801650874384711    0.0000000000000000
     0.0000000000000000    0.0000000000000000   11.0444119142587489
   B    C 
     2     6
Direct
  0.1746030302207231  0.1745666492609104  0.0000000000000000
  0.5078954103452844  0.5079818890117949  0.0000000000000000
  0.9998806259893627  0.9999894052744764  0.0000000000000000
  0.5239026784385246  0.9999894052744764  0.0000000000000000
  0.6825453163220416  0.1586820770582733  0.0000000000000000
  0.9999531242439588  0.5238664612144319  0.0000000000000000
  0.1585957621274758  0.6825591329982288  0.0000000000000000
  0.6826178145766448  0.6825591329982288  0.0000000000000000
 
  0.00000000E+00  0.00000000E+00  0.00000000E+00
  0.00000000E+00  0.00000000E+00  0.00000000E+00
  0.00000000E+00  0.00000000E+00  0.00000000E+00
  0.00000000E+00  0.00000000E+00  0.00000000E+00
  0.00000000E+00  0.00000000E+00  0.00000000E+00
  0.00000000E+00  0.00000000E+00  0.00000000E+00
  0.00000000E+00  0.00000000E+00  0.00000000E+00
  0.00000000E+00  0.00000000E+00  0.00000000E+00
