BC3 with lattice parameter 5.174Ang, len
   1.00000000000000     
     5.1740000000000004    0.0000000000000000    0.0000000000000000
     2.5870000000000002    4.4809999999999999    0.0000000000000000
     0.0000000000000000    0.0000000000000000   20.0000000000000000
   B    C 
     2     6
Direct
  0.1745732550966608  0.1746261995090350  0.0000000000000000
  0.5079251854693467  0.5079223387636702  0.0000000000000000
  0.0000000000000000  0.0000000000000000  0.0000000000000000
  0.5237727097023566  0.0000000000000000  0.0000000000000000
  0.6825513849783817  0.1586699397455931  0.0000000000000000
  0.9999470555876186  0.5238785985271122  0.0000000000000000
  0.1587257308636438  0.6825485382727052  0.0000000000000000
  0.6824984405660075  0.6825485382727052  0.0000000000000000
 
  0.00000000E+00  0.00000000E+00  0.00000000E+00
  0.00000000E+00  0.00000000E+00  0.00000000E+00
  0.00000000E+00  0.00000000E+00  0.00000000E+00
  0.00000000E+00  0.00000000E+00  0.00000000E+00
  0.00000000E+00  0.00000000E+00  0.00000000E+00
  0.00000000E+00  0.00000000E+00  0.00000000E+00
  0.00000000E+00  0.00000000E+00  0.00000000E+00
  0.00000000E+00  0.00000000E+00  0.00000000E+00
