generated by phonopy
   1.0
    13.4190000000000005    7.7459999999999996    0.0000000000000000
   -13.4190000000000005    7.7459999999999996    0.0000000000000000
     0.0000000000000000    0.0000000000000000   15.0000000000000000
B C
  18   54
Direct
  0.1111110000000000  0.2222220000000000  0.2500000000000000
  0.4444443333333333  0.2222220000000000  0.2500000000000000
  0.7777776666666667  0.2222220000000000  0.2500000000000000
  0.1111110000000000  0.5555553333333333  0.2500000000000000
  0.4444443333333333  0.5555553333333333  0.2500000000000000
  0.7777776666666667  0.5555553333333333  0.2500000000000000
  0.1111110000000000  0.8888886666666667  0.2500000000000000
  0.4444443333333333  0.8888886666666667  0.2500000000000000
  0.7777776666666667  0.8888886666666667  0.2500000000000000
  0.2222220000000000  0.1111110000000000  0.2500000000000000
  0.5555553333333333  0.1111110000000000  0.2500000000000000
  0.8888886666666667  0.1111110000000000  0.2500000000000000
  0.2222220000000000  0.4444443333333333  0.2500000000000000
  0.5555553333333333  0.4444443333333333  0.2500000000000000
  0.8888886666666667  0.4444443333333333  0.2500000000000000
  0.2222220000000000  0.7777776666666667  0.2500000000000000
  0.5555553333333333  0.7777776666666667  0.2500000000000000
  0.8888886666666667  0.7777776666666667  0.2500000000000000
  0.0555553333333333  0.1111110000000000  0.2500000000000000
  0.3888886666666667  0.1111110000000000  0.2500000000000000
  0.7222220000000000  0.1111110000000000  0.2500000000000000
  0.0555553333333333  0.4444443333333333  0.2500000000000000
  0.3888886666666667  0.4444443333333333  0.2500000000000000
  0.7222220000000000  0.4444443333333333  0.2500000000000000
  0.0555553333333333  0.7777776666666667  0.2500000000000000
  0.3888886666666667  0.7777776666666667  0.2500000000000000
  0.7222220000000000  0.7777776666666667  0.2500000000000000
  0.1111110000000000  0.0555553333333333  0.2500000000000000
  0.4444443333333333  0.0555553333333333  0.2500000000000000
  0.7777776666666667  0.0555553333333333  0.2500000000000000
  0.1111110000000000  0.3888886666666667  0.2500000000000000
  0.4444443333333333  0.3888886666666667  0.2500000000000000
  0.7777776666666667  0.3888886666666667  0.2500000000000000
  0.1111110000000000  0.7222220000000000  0.2500000000000000
  0.4444443333333333  0.7222220000000000  0.2500000000000000
  0.7777776666666667  0.7222220000000000  0.2500000000000000
  0.0555553333333333  0.2777776666666666  0.2500000000000000
  0.3888886666666667  0.2777776666666666  0.2500000000000000
  0.7222220000000000  0.2777776666666666  0.2500000000000000
  0.0555553333333333  0.6111110000000000  0.2500000000000000
  0.3888886666666667  0.6111110000000000  0.2500000000000000
  0.7222220000000000  0.6111110000000000  0.2500000000000000
  0.0555553333333333  0.9444443333333333  0.2500000000000000
  0.3888886666666667  0.9444443333333333  0.2500000000000000
  0.7222220000000000  0.9444443333333333  0.2500000000000000
  0.2777776666666666  0.0555553333333333  0.2500000000000000
  0.6111110000000000  0.0555553333333333  0.2500000000000000
  0.9444443333333333  0.0555553333333333  0.2500000000000000
  0.2777776666666666  0.3888886666666667  0.2500000000000000
  0.6111110000000000  0.3888886666666667  0.2500000000000000
  0.9444443333333333  0.3888886666666667  0.2500000000000000
  0.2777776666666666  0.7222220000000000  0.2500000000000000
  0.6111110000000000  0.7222220000000000  0.2500000000000000
  0.9444443333333333  0.7222220000000000  0.2500000000000000
  0.2222220000000000  0.2777776666666666  0.2500000000000000
  0.5555553333333333  0.2777776666666666  0.2500000000000000
  0.8888886666666667  0.2777776666666666  0.2500000000000000
  0.2222220000000000  0.6111110000000000  0.2500000000000000
  0.5555553333333333  0.6111110000000000  0.2500000000000000
  0.8888886666666667  0.6111110000000000  0.2500000000000000
  0.2222220000000000  0.9444443333333333  0.2500000000000000
  0.5555553333333333  0.9444443333333333  0.2500000000000000
  0.8888886666666667  0.9444443333333333  0.2500000000000000
  0.2777776666666666  0.2222220000000000  0.2500000000000000
  0.6111110000000000  0.2222220000000000  0.2500000000000000
  0.9444443333333333  0.2222220000000000  0.2500000000000000
  0.2777776666666666  0.5555553333333333  0.2500000000000000
  0.6111110000000000  0.5555553333333333  0.2500000000000000
  0.9444443333333333  0.5555553333333333  0.2500000000000000
  0.2777776666666666  0.8888886666666667  0.2500000000000000
  0.6111110000000000  0.8888886666666667  0.2500000000000000
  0.9444443333333333  0.8888886666666667  0.2500000000000000
