BC3 with lattice parameter 5.174Ang, len
   1.00000000000000     
     5.1635957364341891    0.0000000000000008    0.0000000000000000
     2.5817978682170941    4.4971053823490532    0.0000000000000000
     0.0000000000000000    0.0000000000000000   12.0225464317323567
   B    C 
     2     6
Direct
  0.1726497659346469  0.1784731778330627 -0.0000000000000000
  0.5098486746313609  0.5040753604396425  0.0000000000000000
  0.0018050676372244 -0.0006812492631584  0.0000000000000000
  0.5226488913282904 -0.0006812492631584 -0.0000000000000000
  0.6839253491721573  0.1559220113580421  0.0000000000000000
 -0.0014269086061568  0.5266265269146636 -0.0000000000000000
  0.1598495492377098  0.6832297875358636  0.0000000000000000
  0.6806933729287831  0.6832297875358636  0.0000000000000000
 
  0.00000000E+00  0.00000000E+00  0.00000000E+00
  0.00000000E+00  0.00000000E+00  0.00000000E+00
  0.00000000E+00  0.00000000E+00  0.00000000E+00
  0.00000000E+00  0.00000000E+00  0.00000000E+00
  0.00000000E+00  0.00000000E+00  0.00000000E+00
  0.00000000E+00  0.00000000E+00  0.00000000E+00
  0.00000000E+00  0.00000000E+00  0.00000000E+00
  0.00000000E+00  0.00000000E+00  0.00000000E+00
