BC3 with lattice parameter 5.174Ang, len
   1.00000000000000     
     5.1722586918572393    0.0000000000000000    0.0000000000000000
     2.5861293459286196    4.4796282339356823    0.0000000000000000
     0.0000000000000000    0.0000000000000000   19.9080409333786541
   B    C 
     2     6
Direct
  0.1745978588987450  0.1745769919048666 -0.0000000000000000
  0.5079005816672625  0.5079715463678387 -0.0000000000000000
 -0.0001787833311565  0.0000458239357105 -0.0000000000000000
  0.5239056690978026  0.0000458239357105 -0.0000000000000000
  0.6825505230487833  0.1586716636047901 -0.0000000000000000
  0.9999479175172171  0.5238768746679151  0.0000000000000000
  0.1585927714681979  0.6825027143369948 -0.0000000000000000
  0.6826772238971640  0.6825027143369948  0.0000000000000000
 
  0.00000000E+00  0.00000000E+00  0.00000000E+00
  0.00000000E+00  0.00000000E+00  0.00000000E+00
  0.00000000E+00  0.00000000E+00  0.00000000E+00
  0.00000000E+00  0.00000000E+00  0.00000000E+00
  0.00000000E+00  0.00000000E+00  0.00000000E+00
  0.00000000E+00  0.00000000E+00  0.00000000E+00
  0.00000000E+00  0.00000000E+00  0.00000000E+00
  0.00000000E+00  0.00000000E+00  0.00000000E+00
