BC3 with lattice parameter 5.174Ang, len
   1.00000000000000     
     5.1725390219441874    0.0000000000000000    0.0000000000000000
     2.5862695109720937    4.4796035768108213    0.0000000000000000
     0.0000000000000000    0.0000000000000000   19.9681841739885044
   B    C 
     2     6
Direct
  0.1745694505594073  0.1746338085835419 -0.0000000000000000
  0.5079289900066002  0.5079147296891633 -0.0000000000000000
 -0.0000893680016112 -0.0000393531686134 -0.0000000000000000
  0.5239014308725811 -0.0000393531686134 -0.0000000000000000
  0.6825710448365588  0.1586306200292388 -0.0000000000000000
  0.9999273957294416  0.5239179182434663  0.0000000000000000
  0.1585970096934193  0.6825878914413187 -0.0000000000000000
  0.6825878085676187  0.6825878914413187  0.0000000000000000
 
  0.00000000E+00  0.00000000E+00  0.00000000E+00
  0.00000000E+00  0.00000000E+00  0.00000000E+00
  0.00000000E+00  0.00000000E+00  0.00000000E+00
  0.00000000E+00  0.00000000E+00  0.00000000E+00
  0.00000000E+00  0.00000000E+00  0.00000000E+00
  0.00000000E+00  0.00000000E+00  0.00000000E+00
  0.00000000E+00  0.00000000E+00  0.00000000E+00
  0.00000000E+00  0.00000000E+00  0.00000000E+00
