BC3 with lattice parameter 5.174Ang, len
   1.00000000000000     
     5.1716980316833450    0.0000000000000000    0.0000000000000000
     2.5858490158416725    4.4796775481854052    0.0000000000000000
     0.0000000000000000    0.0000000000000000   19.7877544521589570
   B    C 
     2     6
Direct
  0.1746546752646855  0.1744633591729855 -0.0000000000000000
  0.5078437653013219  0.5080851790997197 -0.0000000000000000
 -0.0003576185973165  0.0002161772066811 -0.0000000000000000
  0.5239141510929919  0.0002161772066811 -0.0000000000000000
  0.6825094796991473  0.1587537503040619 -0.0000000000000000
  0.9999889608668531  0.5237947879686432  0.0000000000000000
  0.1585842894730085  0.6823323610660242 -0.0000000000000000
  0.6828560591633240  0.6823323610660242  0.0000000000000000
 
  0.00000000E+00  0.00000000E+00  0.00000000E+00
  0.00000000E+00  0.00000000E+00  0.00000000E+00
  0.00000000E+00  0.00000000E+00  0.00000000E+00
  0.00000000E+00  0.00000000E+00  0.00000000E+00
  0.00000000E+00  0.00000000E+00  0.00000000E+00
  0.00000000E+00  0.00000000E+00  0.00000000E+00
  0.00000000E+00  0.00000000E+00  0.00000000E+00
  0.00000000E+00  0.00000000E+00  0.00000000E+00
