BC3 with lattice parameter 5.174Ang, len
   1.00000000000000     
     5.1726324653065028    0.0000000000000000    0.0000000000000000
     2.5863162326532514    4.4795953577692007    0.0000000000000000
     0.0000000000000000    0.0000000000000000   19.9882319208584533
   B    C 
     2     6
Direct
  0.1745599810955871  0.1746527475111823 -0.0000000000000000
  0.5079384594704204  0.5078957907615229 -0.0000000000000000
 -0.0000595631476905 -0.0000677455888149 -0.0000000000000000
  0.5239000184388619 -0.0000677455888149 -0.0000000000000000
  0.6825778854450349  0.1586169388122865 -0.0000000000000000
  0.9999205551209654  0.5239315994604187  0.0000000000000000
  0.1585984221271385  0.6826162838615202 -0.0000000000000000
  0.6825580037136980  0.6826162838615202  0.0000000000000000
 
  0.00000000E+00  0.00000000E+00  0.00000000E+00
  0.00000000E+00  0.00000000E+00  0.00000000E+00
  0.00000000E+00  0.00000000E+00  0.00000000E+00
  0.00000000E+00  0.00000000E+00  0.00000000E+00
  0.00000000E+00  0.00000000E+00  0.00000000E+00
  0.00000000E+00  0.00000000E+00  0.00000000E+00
  0.00000000E+00  0.00000000E+00  0.00000000E+00
  0.00000000E+00  0.00000000E+00  0.00000000E+00
