BC3 with lattice parameter 5.174Ang, len
   1.00000000000000     
     5.1709336658805798    0.0000000000000005    0.0000000000000000
     2.5854668329402899    4.4892449028923282    0.0000000000000000
     0.0000000000000000    0.0000000000000000   14.7896615064793089
   B    C 
     2     6
Direct
  0.1738516090151829  0.1760694916719908 -0.0000000000000000
  0.5086468315508249  0.5064790466007144  0.0000000000000000
  0.0010512099091681 -0.0009886302601673  0.0000000000000000
  0.5237101300533556 -0.0009886302601673 -0.0000000000000000
  0.6830241704229828  0.1577243688563910  0.0000000000000000
 -0.0005257298569823  0.5248241694163146 -0.0000000000000000
  0.1587883105126446  0.6835371685328725  0.0000000000000000
  0.6814472306568393  0.6835371685328725  0.0000000000000000
 
  0.00000000E+00  0.00000000E+00  0.00000000E+00
  0.00000000E+00  0.00000000E+00  0.00000000E+00
  0.00000000E+00  0.00000000E+00  0.00000000E+00
  0.00000000E+00  0.00000000E+00  0.00000000E+00
  0.00000000E+00  0.00000000E+00  0.00000000E+00
  0.00000000E+00  0.00000000E+00  0.00000000E+00
  0.00000000E+00  0.00000000E+00  0.00000000E+00
  0.00000000E+00  0.00000000E+00  0.00000000E+00
