BC3 with lattice parameter 5.174Ang, len
   1.00000000000000     
     5.1736783570403482    0.0000000000000007    0.0000000000000000
     2.5868391785201741    4.4809106865118782    0.0000000000000000
     0.0000000000000000    0.0000000000000000   13.0056103303244974
   B    C 
     2     6
Direct
  0.1745541858327274  0.1746643380369017 -0.0000000000000000
  0.5079442547332803  0.5078842002358036  0.0000000000000000
 -0.0000495703651229 -0.0000513354590158  0.0000000000000000
  0.5238736155264954 -0.0000513354590158 -0.0000000000000000
  0.6825876887927511  0.1585973321168544  0.0000000000000000
 -0.0000892482267506  0.5239512061558510 -0.0000000000000000
  0.1586248250395051  0.6825998737317210  0.0000000000000000
  0.6825480109311302  0.6825998737317210  0.0000000000000000
 
  0.00000000E+00  0.00000000E+00  0.00000000E+00
  0.00000000E+00  0.00000000E+00  0.00000000E+00
  0.00000000E+00  0.00000000E+00  0.00000000E+00
  0.00000000E+00  0.00000000E+00  0.00000000E+00
  0.00000000E+00  0.00000000E+00  0.00000000E+00
  0.00000000E+00  0.00000000E+00  0.00000000E+00
  0.00000000E+00  0.00000000E+00  0.00000000E+00
  0.00000000E+00  0.00000000E+00  0.00000000E+00
