BC3 with lattice parameter 5.174Ang, len
   1.00000000000000     
     5.1715150447561662    0.0000000000000000    0.0000000000000000
     2.5857575223780831    4.4784476164343516    0.0000000000000000
     0.0000000000000000    0.0000000000000000   19.9786161549599441
   B    C 
     2     6
Direct
  0.1745491235943260  0.1746744625137046 -0.0000000000000000
  0.5079493169716816  0.5078740757590006 -0.0000000000000000
 -0.0001082705526625 -0.0001231582569256 -0.0000000000000000
  0.5240041385119447 -0.0001231582569256 -0.0000000000000000
  0.6825995615657851  0.1585735865707864 -0.0000000000000000
  0.9998988790002153  0.5239749517019189  0.0000000000000000
  0.1584943020540557  0.6826716965296309 -0.0000000000000000
  0.6826067111186700  0.6826716965296309  0.0000000000000000
 
  0.00000000E+00  0.00000000E+00  0.00000000E+00
  0.00000000E+00  0.00000000E+00  0.00000000E+00
  0.00000000E+00  0.00000000E+00  0.00000000E+00
  0.00000000E+00  0.00000000E+00  0.00000000E+00
  0.00000000E+00  0.00000000E+00  0.00000000E+00
  0.00000000E+00  0.00000000E+00  0.00000000E+00
  0.00000000E+00  0.00000000E+00  0.00000000E+00
  0.00000000E+00  0.00000000E+00  0.00000000E+00
