BC3 with lattice parameter 5.126A, C-C l
   5.12600000000000     
     6.7154623634540460    0.0000000000000000    0.0000000000000000
     3.3577311817270230    5.8049657808689972    0.0000000000000000
     0.0000000000000000    0.0000000000000000   22.7386862652867308
   B    C 
     2     6
Direct
  0.3333348619625959  0.3333302760748081  0.0000000000000000
  0.6666651380374041  0.6666697239251919  0.0000000000000000
  0.1582149686218244  0.1582642069324414  0.0000000000000000
  0.6835208244457344  0.1582642069324414 -0.0000000000000000
  0.1582442488387589  0.6835115023224750  0.0000000000000000
  0.8417850313781756  0.8417357930675586 -0.0000000000000000
  0.3164791755542658  0.8417357930675586  0.0000000000000000
  0.8417557511612411  0.3164884976775250  0.0000000000000000
 
  0.00000000E+00  0.00000000E+00  0.00000000E+00
  0.00000000E+00  0.00000000E+00  0.00000000E+00
  0.00000000E+00  0.00000000E+00  0.00000000E+00
  0.00000000E+00  0.00000000E+00  0.00000000E+00
  0.00000000E+00  0.00000000E+00  0.00000000E+00
  0.00000000E+00  0.00000000E+00  0.00000000E+00
  0.00000000E+00  0.00000000E+00  0.00000000E+00
  0.00000000E+00  0.00000000E+00  0.00000000E+00
