BC3                                     
   1.00000000000000     
     4.5466333710000004    2.6200000000000001    0.0000000000000000
    -4.5466333710000004    2.6200000000000001    0.0000000000000000
     0.0000000000000000    0.0000000000000000   15.0000000000000000
   B    C 
     2     6
Direct
  0.3333330000000032  0.6666659999999993  0.2500000000000000
  0.6666659999999993  0.3333330000000032  0.2500000000000000
  0.1666659999999993  0.3333330000000032  0.2500000000000000
  0.3333330000000032  0.1666659999999993  0.2500000000000000
  0.1666659999999993  0.8333330000000032  0.2500000000000000
  0.8333330000000032  0.1666659999999993  0.2500000000000000
  0.6666659999999993  0.8333330000000032  0.2500000000000000
  0.8333330000000032  0.6666659999999993  0.2500000000000000
 
  0.00000000E+00  0.00000000E+00  0.00000000E+00
  0.00000000E+00  0.00000000E+00  0.00000000E+00
  0.00000000E+00  0.00000000E+00  0.00000000E+00
  0.00000000E+00  0.00000000E+00  0.00000000E+00
  0.00000000E+00  0.00000000E+00  0.00000000E+00
  0.00000000E+00  0.00000000E+00  0.00000000E+00
  0.00000000E+00  0.00000000E+00  0.00000000E+00
  0.00000000E+00  0.00000000E+00  0.00000000E+00
