SYSTEM = BC3-a
LCHARG = .FALSE.
LWAVE = .FALSE.
ENCUT = 500
LREAL = .FALSE.
GGA = PE
ISMEAR = 0
SIGMA = 0.1
ISPIN = 1
PREC = Normal
ALGO = Normal
EDIFF = 1E-6
