BC3 with lattice parameter 5.174Ang, len
   1.00000000000000     
     5.1740000000000004    0.0000000000000000    0.0000000000000000
     2.5870000000000002    4.4809999999999999    0.0000000000000000
     0.0000000000000000    0.0000000000000000   20.0000000000000000
   B    C 
     2     6
Direct
  0.1746214834232079  0.1745297428559408  0.0000000000000000
  0.5078769571427996  0.5080187954167645 -0.0000000000000000
 -0.0005911707196463 -0.0003639899394758  0.0000000000000000
  0.5247278703614787 -0.0003639899394758  0.0000000000000000
  0.6830845291441197  0.1576036514141171  0.0000000000000000
  0.9994139114218807  0.5249448868585881  0.0000000000000000
  0.1577705702045217  0.6829125282121811  0.0000000000000000
  0.6830896112856539  0.6829125282121811 -0.0000000000000000
 
  0.00000000E+00  0.00000000E+00  0.00000000E+00
  0.00000000E+00  0.00000000E+00  0.00000000E+00
  0.00000000E+00  0.00000000E+00  0.00000000E+00
  0.00000000E+00  0.00000000E+00  0.00000000E+00
  0.00000000E+00  0.00000000E+00  0.00000000E+00
  0.00000000E+00  0.00000000E+00  0.00000000E+00
  0.00000000E+00  0.00000000E+00  0.00000000E+00
  0.00000000E+00  0.00000000E+00  0.00000000E+00
