BC3 with lattice parameter 5.174Ang, len
   1.00000000000000     
     5.1740000000000004    0.0000000000000000    0.0000000000000000
     2.5870000000000002    4.4809999999999999    0.0000000000000000
     0.0000000000000000    0.0000000000000000   20.0000000000000000
   B    C 
     2     6
Direct
  0.1745795960680945  0.1746135175661675  0.0000000000000000
  0.5079188444979131  0.5079350207065377 -0.0000000000000000
 -0.0000550731523710 -0.0000312309249213 -0.0000000000000000
  0.5238590137796489 -0.0000312309249213  0.0000000000000000
  0.6825568470161876  0.1586590156699816  0.0000000000000000
  0.9999415935498128  0.5238895226027237 -0.0000000000000000
  0.1586394267863515  0.6825797691976265 -0.0000000000000000
  0.6825535137183785  0.6825797691976265  0.0000000000000000
 
  0.00000000E+00  0.00000000E+00  0.00000000E+00
  0.00000000E+00  0.00000000E+00  0.00000000E+00
  0.00000000E+00  0.00000000E+00  0.00000000E+00
  0.00000000E+00  0.00000000E+00  0.00000000E+00
  0.00000000E+00  0.00000000E+00  0.00000000E+00
  0.00000000E+00  0.00000000E+00  0.00000000E+00
  0.00000000E+00  0.00000000E+00  0.00000000E+00
  0.00000000E+00  0.00000000E+00  0.00000000E+00
