BC3 with lattice parameter 5.174Ang, len
   1.00000000000000     
     5.1740000000000004    0.0000000000000000    0.0000000000000000
     2.5870000000000002    4.4809999999999999    0.0000000000000000
     0.0000000000000000    0.0000000000000000   20.0000000000000000
   B    C 
     2     6
Direct
  0.1745654437334550  0.1746418222354466 -0.0000000000000000
  0.5079329968325526  0.5079067160372588 -0.0000000000000000
 -0.0001610386658073 -0.0001659537289575 -0.0000000000000000
  0.5240997020971212 -0.0001659537289575 -0.0000000000000000
  0.6826929030729431  0.1583869035564704  0.0000000000000000
  0.9998055374930573  0.5241616347162350 -0.0000000000000000
  0.1583987384688790  0.6827144920016628 -0.0000000000000000
  0.6826594792318148  0.6827144920016628 -0.0000000000000000
 
  0.00000000E+00  0.00000000E+00  0.00000000E+00
  0.00000000E+00  0.00000000E+00  0.00000000E+00
  0.00000000E+00  0.00000000E+00  0.00000000E+00
  0.00000000E+00  0.00000000E+00  0.00000000E+00
  0.00000000E+00  0.00000000E+00  0.00000000E+00
  0.00000000E+00  0.00000000E+00  0.00000000E+00
  0.00000000E+00  0.00000000E+00  0.00000000E+00
  0.00000000E+00  0.00000000E+00  0.00000000E+00
