BC#-layer-a-2.468-120-deg
1.0
4.481422   2.58735   0.00000
-4.481422  2.58735   0.00000
0.000000   0.00000   15.00000
 B  C
 2  6
Direct
   0.333333    0.666666    0.250000
   0.666666    0.333333    0.250000
   0.166666    0.333333    0.250000
   0.333333    0.166666    0.250000
   0.166666    0.833333    0.250000
   0.833333    0.166666    0.250000
   0.666666    0.833333    0.250000
   0.833333    0.666666    0.250000
