K-points for BC3 bandstructure
40
line
reciprocal
-0.333   0.667   0.000  !K
 0.000   0.000   0.000  !Γ

 0.000   0.000   0.000  !Γ
 0.500   0.000   0.000  !M

 0.500   0.000   0.000  !M
-0.333   0.667   0.000  !K
