BC3 with lattice parameter 5.174Ang, len
   1.00000000000000     
     5.1705767113355563    0.0000000000000000    0.0000000000000000
     2.5852883556677781    4.4797761766848501    0.0000000000000000
     0.0000000000000000    0.0000000000000000   19.5471814897195593
   B    C 
     2     6
Direct
  0.1747683067456478  0.1742360962110610 -0.0000000000000000
  0.5077301338203597  0.5083124420616442 -0.0000000000000000
 -0.0007153075612467  0.0005568799979757 -0.0000000000000000
  0.5239311372656275  0.0005568799979757 -0.0000000000000000
  0.6824273939035218  0.1589179218953130 -0.0000000000000000
  0.0000710466624787  0.5236306163773921  0.0000000000000000
  0.1585673033003729  0.6819916582747296 -0.0000000000000000
  0.6832137481272542  0.6819916582747296  0.0000000000000000
 
  0.00000000E+00  0.00000000E+00  0.00000000E+00
  0.00000000E+00  0.00000000E+00  0.00000000E+00
  0.00000000E+00  0.00000000E+00  0.00000000E+00
  0.00000000E+00  0.00000000E+00  0.00000000E+00
  0.00000000E+00  0.00000000E+00  0.00000000E+00
  0.00000000E+00  0.00000000E+00  0.00000000E+00
  0.00000000E+00  0.00000000E+00  0.00000000E+00
  0.00000000E+00  0.00000000E+00  0.00000000E+00
