generated by phonopy                    
   1.00000000000000     
    13.4425453020754500    7.7610565552155313    0.0000000000000000
   -13.4425453020754500    7.7610565552155313    0.0000000000000000
     0.0000000000000000    0.0000000000000000    8.5202213998397571
   B    C 
    18    54
Direct
  0.1111110000000011  0.2222220000000021  0.2500000000000000
  0.4444443333333368  0.2222220000000021  0.2500000000000000
  0.7777776666666654  0.2222220000000021  0.2500000000000000
  0.1111110000000011  0.5555553333333307  0.2500000000000000
  0.4444443333333368  0.5555553333333307  0.2500000000000000
  0.7777776666666654  0.5555553333333307  0.2500000000000000
  0.1111110000000011  0.8888886666666664  0.2500000000000000
  0.4444443333333368  0.8888886666666664  0.2500000000000000
  0.7777776666666654  0.8888886666666664  0.2500000000000000
  0.2222220000000021  0.1111110000000011  0.2500000000000000
  0.5555553333333307  0.1111110000000011  0.2500000000000000
  0.8888886666666664  0.1111110000000011  0.2500000000000000
  0.2222220000000021  0.4444443333333368  0.2500000000000000
  0.5555553333333307  0.4444443333333368  0.2500000000000000
  0.8888886666666664  0.4444443333333368  0.2500000000000000
  0.2222220000000021  0.7777776666666654  0.2500000000000000
  0.5555553333333307  0.7777776666666654  0.2500000000000000
  0.8888886666666664  0.7777776666666654  0.2500000000000000
  0.0528970807258560  0.1057944947958944  0.2500000000000000
  0.3862304140591917  0.1057944947958944  0.2500000000000000
  0.7195637473925203  0.1057944947958944  0.2500000000000000
  0.0528970807258560  0.4391278281292230  0.2500000000000000
  0.3862304140591917  0.4391278281292230  0.2500000000000000
  0.7195637473925203  0.4391278281292230  0.2500000000000000
  0.0528970807258560  0.7724611614625587  0.2500000000000000
  0.3862304140591917  0.7724611614625587  0.2500000000000000
  0.7195637473925203  0.7724611614625587  0.2500000000000000
  0.1057944947958944  0.0528970807258560  0.2500000000000000
  0.4391278281292230  0.0528970807258560  0.2500000000000000
  0.7724611614625587  0.0528970807258560  0.2500000000000000
  0.1057944947958944  0.3862304140591917  0.2500000000000000
  0.4391278281292230  0.3862304140591917  0.2500000000000000
  0.7724611614625587  0.3862304140591917  0.2500000000000000
  0.1057944947958944  0.7195637473925203  0.2500000000000000
  0.4391278281292230  0.7195637473925203  0.2500000000000000
  0.7724611614625587  0.7195637473925203  0.2500000000000000
  0.0528970807366989  0.2804359192632973  0.2500000000000000
  0.3862304140700346  0.2804359192632973  0.2500000000000000
  0.7195637474033703  0.2804359192632973  0.2500000000000000
  0.0528970807366989  0.6137692525966330  0.2500000000000000
  0.3862304140700346  0.6137692525966330  0.2500000000000000
  0.7195637474033703  0.6137692525966330  0.2500000000000000
  0.0528970807366989  0.9471025859299687  0.2500000000000000
  0.3862304140700346  0.9471025859299687  0.2500000000000000
  0.7195637474033703  0.9471025859299687  0.2500000000000000
  0.2804359192632973  0.0528970807366989  0.2500000000000000
  0.6137692525966330  0.0528970807366989  0.2500000000000000
  0.9471025859299687  0.0528970807366989  0.2500000000000000
  0.2804359192632973  0.3862304140700346  0.2500000000000000
  0.6137692525966330  0.3862304140700346  0.2500000000000000
  0.9471025859299687  0.3862304140700346  0.2500000000000000
  0.2804359192632973  0.7195637474033703  0.2500000000000000
  0.6137692525966330  0.7195637474033703  0.2500000000000000
  0.9471025859299687  0.7195637474033703  0.2500000000000000
  0.2275385052041088  0.2804359192741472  0.2500000000000000
  0.5608718385374445  0.2804359192741472  0.2500000000000000
  0.8942051718707731  0.2804359192741472  0.2500000000000000
  0.2275385052041088  0.6137692526074758  0.2500000000000000
  0.5608718385374445  0.6137692526074758  0.2500000000000000
  0.8942051718707731  0.6137692526074758  0.2500000000000000
  0.2275385052041088  0.9471025859408115  0.2500000000000000
  0.5608718385374445  0.9471025859408115  0.2500000000000000
  0.8942051718707731  0.9471025859408115  0.2500000000000000
  0.2804359192741472  0.2275385052041088  0.2500000000000000
  0.6137692526074758  0.2275385052041088  0.2500000000000000
  0.9471025859408115  0.2275385052041088  0.2500000000000000
  0.2804359192741472  0.5608718385374445  0.2500000000000000
  0.6137692526074758  0.5608718385374445  0.2500000000000000
  0.9471025859408115  0.5608718385374445  0.2500000000000000
  0.2804359192741472  0.8942051718707731  0.2500000000000000
  0.6137692526074758  0.8942051718707731  0.2500000000000000
  0.9471025859408115  0.8942051718707731  0.2500000000000000
 
  0.00000000E+00  0.00000000E+00  0.00000000E+00
  0.00000000E+00  0.00000000E+00  0.00000000E+00
  0.00000000E+00  0.00000000E+00  0.00000000E+00
  0.00000000E+00  0.00000000E+00  0.00000000E+00
  0.00000000E+00  0.00000000E+00  0.00000000E+00
  0.00000000E+00  0.00000000E+00  0.00000000E+00
  0.00000000E+00  0.00000000E+00  0.00000000E+00
  0.00000000E+00  0.00000000E+00  0.00000000E+00
  0.00000000E+00  0.00000000E+00  0.00000000E+00
  0.00000000E+00  0.00000000E+00  0.00000000E+00
  0.00000000E+00  0.00000000E+00  0.00000000E+00
  0.00000000E+00  0.00000000E+00  0.00000000E+00
  0.00000000E+00  0.00000000E+00  0.00000000E+00
  0.00000000E+00  0.00000000E+00  0.00000000E+00
  0.00000000E+00  0.00000000E+00  0.00000000E+00
  0.00000000E+00  0.00000000E+00  0.00000000E+00
  0.00000000E+00  0.00000000E+00  0.00000000E+00
  0.00000000E+00  0.00000000E+00  0.00000000E+00
  0.00000000E+00  0.00000000E+00  0.00000000E+00
  0.00000000E+00  0.00000000E+00  0.00000000E+00
  0.00000000E+00  0.00000000E+00  0.00000000E+00
  0.00000000E+00  0.00000000E+00  0.00000000E+00
  0.00000000E+00  0.00000000E+00  0.00000000E+00
  0.00000000E+00  0.00000000E+00  0.00000000E+00
  0.00000000E+00  0.00000000E+00  0.00000000E+00
  0.00000000E+00  0.00000000E+00  0.00000000E+00
  0.00000000E+00  0.00000000E+00  0.00000000E+00
  0.00000000E+00  0.00000000E+00  0.00000000E+00
  0.00000000E+00  0.00000000E+00  0.00000000E+00
  0.00000000E+00  0.00000000E+00  0.00000000E+00
  0.00000000E+00  0.00000000E+00  0.00000000E+00
  0.00000000E+00  0.00000000E+00  0.00000000E+00
  0.00000000E+00  0.00000000E+00  0.00000000E+00
  0.00000000E+00  0.00000000E+00  0.00000000E+00
  0.00000000E+00  0.00000000E+00  0.00000000E+00
  0.00000000E+00  0.00000000E+00  0.00000000E+00
  0.00000000E+00  0.00000000E+00  0.00000000E+00
  0.00000000E+00  0.00000000E+00  0.00000000E+00
  0.00000000E+00  0.00000000E+00  0.00000000E+00
  0.00000000E+00  0.00000000E+00  0.00000000E+00
  0.00000000E+00  0.00000000E+00  0.00000000E+00
  0.00000000E+00  0.00000000E+00  0.00000000E+00
  0.00000000E+00  0.00000000E+00  0.00000000E+00
  0.00000000E+00  0.00000000E+00  0.00000000E+00
  0.00000000E+00  0.00000000E+00  0.00000000E+00
  0.00000000E+00  0.00000000E+00  0.00000000E+00
  0.00000000E+00  0.00000000E+00  0.00000000E+00
  0.00000000E+00  0.00000000E+00  0.00000000E+00
  0.00000000E+00  0.00000000E+00  0.00000000E+00
  0.00000000E+00  0.00000000E+00  0.00000000E+00
  0.00000000E+00  0.00000000E+00  0.00000000E+00
  0.00000000E+00  0.00000000E+00  0.00000000E+00
  0.00000000E+00  0.00000000E+00  0.00000000E+00
  0.00000000E+00  0.00000000E+00  0.00000000E+00
  0.00000000E+00  0.00000000E+00  0.00000000E+00
  0.00000000E+00  0.00000000E+00  0.00000000E+00
  0.00000000E+00  0.00000000E+00  0.00000000E+00
  0.00000000E+00  0.00000000E+00  0.00000000E+00
  0.00000000E+00  0.00000000E+00  0.00000000E+00
  0.00000000E+00  0.00000000E+00  0.00000000E+00
  0.00000000E+00  0.00000000E+00  0.00000000E+00
  0.00000000E+00  0.00000000E+00  0.00000000E+00
  0.00000000E+00  0.00000000E+00  0.00000000E+00
  0.00000000E+00  0.00000000E+00  0.00000000E+00
  0.00000000E+00  0.00000000E+00  0.00000000E+00
  0.00000000E+00  0.00000000E+00  0.00000000E+00
  0.00000000E+00  0.00000000E+00  0.00000000E+00
  0.00000000E+00  0.00000000E+00  0.00000000E+00
  0.00000000E+00  0.00000000E+00  0.00000000E+00
  0.00000000E+00  0.00000000E+00  0.00000000E+00
  0.00000000E+00  0.00000000E+00  0.00000000E+00
  0.00000000E+00  0.00000000E+00  0.00000000E+00
