K-points for BC3
0
Gamma
4   4   1  # Reduced kpoints for larger supercell from 12*12*1
0   0   0