generated by phonopy
   1.0
    13.4425453020754500    7.7610565552155313    0.0000000000000000
   -13.4425453020754500    7.7610565552155313    0.0000000000000000
     0.0000000000000000    0.0000000000000000    8.5202213998397571
B C
  18   54
Direct
  0.1111110000000011  0.2222219999999998  0.2500000000000000
  0.4444443333333344  0.2222219999999998  0.2500000000000000
  0.7777776666666678  0.2222219999999998  0.2500000000000000
  0.1111110000000011  0.5555553333333331  0.2500000000000000
  0.4444443333333344  0.5555553333333331  0.2500000000000000
  0.7777776666666677  0.5555553333333331  0.2500000000000000
  0.1111110000000011  0.8888886666666664  0.2500000000000000
  0.4444443333333345  0.8888886666666664  0.2500000000000000
  0.7777776666666678  0.8888886666666664  0.2500000000000000
  0.2222219999999998  0.1111110000000011  0.2500000000000000
  0.5555553333333331  0.1111110000000011  0.2500000000000000
  0.8888886666666664  0.1111110000000011  0.2500000000000000
  0.2222219999999998  0.4444443333333344  0.2500000000000000
  0.5555553333333331  0.4444443333333344  0.2500000000000000
  0.8888886666666664  0.4444443333333345  0.2500000000000000
  0.2222219999999998  0.7777776666666678  0.2500000000000000
  0.5555553333333331  0.7777776666666677  0.2500000000000000
  0.8888886666666664  0.7777776666666678  0.2500000000000000
  0.0528970807258559  0.1052297394986175  0.2494352447027254
  0.3862304140591893  0.1057944947958921  0.2500000000000000
  0.7195637473925225  0.1057944947958920  0.2500000000000000
  0.0528970807258560  0.4391278281292254  0.2500000000000000
  0.3862304140591893  0.4391278281292254  0.2500000000000000
  0.7195637473925226  0.4391278281292254  0.2500000000000000
  0.0528970807258559  0.7724611614625587  0.2500000000000000
  0.3862304140591892  0.7724611614625587  0.2500000000000000
  0.7195637473925225  0.7724611614625587  0.2500000000000000
  0.1057944947958921  0.0528970807258559  0.2500000000000000
  0.4391278281292254  0.0528970807258560  0.2500000000000000
  0.7724611614625587  0.0528970807258559  0.2500000000000000
  0.1057944947958921  0.3862304140591893  0.2500000000000000
  0.4391278281292254  0.3862304140591893  0.2500000000000000
  0.7724611614625587  0.3862304140591892  0.2500000000000000
  0.1057944947958920  0.7195637473925225  0.2500000000000000
  0.4391278281292254  0.7195637473925226  0.2500000000000000
  0.7724611614625587  0.7195637473925225  0.2500000000000000
  0.0528970807367012  0.2804359192632996  0.2500000000000000
  0.3862304140700345  0.2804359192632995  0.2500000000000000
  0.7195637474033678  0.2804359192632996  0.2500000000000000
  0.0528970807367012  0.6137692525966330  0.2500000000000000
  0.3862304140700346  0.6137692525966330  0.2500000000000000
  0.7195637474033679  0.6137692525966331  0.2500000000000000
  0.0528970807367012  0.9471025859299662  0.2500000000000000
  0.3862304140700346  0.9471025859299662  0.2500000000000000
  0.7195637474033679  0.9471025859299663  0.2500000000000000
  0.2804359192632996  0.0528970807367012  0.2500000000000000
  0.6137692525966330  0.0528970807367012  0.2500000000000000
  0.9471025859299662  0.0528970807367012  0.2500000000000000
  0.2804359192632995  0.3862304140700345  0.2500000000000000
  0.6137692525966330  0.3862304140700346  0.2500000000000000
  0.9471025859299662  0.3862304140700346  0.2500000000000000
  0.2804359192632996  0.7195637474033678  0.2500000000000000
  0.6137692525966331  0.7195637474033679  0.2500000000000000
  0.9471025859299663  0.7195637474033679  0.2500000000000000
  0.2275385052041088  0.2804359192741448  0.2500000000000000
  0.5608718385374420  0.2804359192741449  0.2500000000000000
  0.8942051718707754  0.2804359192741449  0.2500000000000000
  0.2275385052041088  0.6137692526074782  0.2500000000000000
  0.5608718385374422  0.6137692526074782  0.2500000000000000
  0.8942051718707753  0.6137692526074781  0.2500000000000000
  0.2275385052041088  0.9471025859408115  0.2500000000000000
  0.5608718385374419  0.9471025859408114  0.2500000000000000
  0.8942051718707754  0.9471025859408116  0.2500000000000000
  0.2804359192741448  0.2275385052041088  0.2500000000000000
  0.6137692526074782  0.2275385052041088  0.2500000000000000
  0.9471025859408115  0.2275385052041088  0.2500000000000000
  0.2804359192741449  0.5608718385374420  0.2500000000000000
  0.6137692526074782  0.5608718385374422  0.2500000000000000
  0.9471025859408114  0.5608718385374419  0.2500000000000000
  0.2804359192741449  0.8942051718707754  0.2500000000000000
  0.6137692526074781  0.8942051718707753  0.2500000000000000
  0.9471025859408116  0.8942051718707754  0.2500000000000000
