generated by phonopy
   1.0
    13.4425453020754500    7.7610565552155313    0.0000000000000000
   -13.4425453020754500    7.7610565552155313    0.0000000000000000
     0.0000000000000000    0.0000000000000000    8.5202213998397571
B C
  18   54
Direct
  0.1111110000000011  0.2222219999999998  0.2500000000000000
  0.4444443333333344  0.2222219999999998  0.2500000000000000
  0.7777776666666677  0.2222219999999998  0.2500000000000000
  0.1111110000000011  0.5555553333333331  0.2500000000000000
  0.4444443333333344  0.5555553333333331  0.2500000000000000
  0.7777776666666677  0.5555553333333331  0.2500000000000000
  0.1111110000000011  0.8888886666666664  0.2500000000000000
  0.4444443333333344  0.8888886666666664  0.2500000000000000
  0.7777776666666677  0.8888886666666664  0.2500000000000000
  0.2222219999999998  0.1111110000000011  0.2500000000000000
  0.5555553333333331  0.1111110000000011  0.2500000000000000
  0.8888886666666664  0.1111110000000011  0.2500000000000000
  0.2222219999999998  0.4444443333333344  0.2500000000000000
  0.5555553333333331  0.4444443333333344  0.2500000000000000
  0.8888886666666664  0.4444443333333344  0.2500000000000000
  0.2222219999999998  0.7777776666666677  0.2500000000000000
  0.5555553333333331  0.7777776666666677  0.2500000000000000
  0.8888886666666664  0.7777776666666677  0.2500000000000000
  0.0528970807258560  0.1057944947958921  0.2500000000000000
  0.3862304140591893  0.1057944947958921  0.2500000000000000
  0.7195637473925226  0.1057944947958921  0.2500000000000000
  0.0528970807258560  0.4391278281292254  0.2500000000000000
  0.3862304140591893  0.4391278281292254  0.2500000000000000
  0.7195637473925226  0.4391278281292254  0.2500000000000000
  0.0528970807258560  0.7724611614625587  0.2500000000000000
  0.3862304140591893  0.7724611614625587  0.2500000000000000
  0.7195637473925226  0.7724611614625587  0.2500000000000000
  0.1057944947958921  0.0528970807258560  0.2500000000000000
  0.4391278281292254  0.0528970807258560  0.2500000000000000
  0.7724611614625587  0.0528970807258560  0.2500000000000000
  0.1057944947958921  0.3862304140591893  0.2500000000000000
  0.4391278281292254  0.3862304140591893  0.2500000000000000
  0.7724611614625587  0.3862304140591893  0.2500000000000000
  0.1057944947958921  0.7195637473925226  0.2500000000000000
  0.4391278281292254  0.7195637473925226  0.2500000000000000
  0.7724611614625587  0.7195637473925226  0.2500000000000000
  0.0528970807367012  0.2804359192632996  0.2500000000000000
  0.3862304140700346  0.2804359192632996  0.2500000000000000
  0.7195637474033678  0.2804359192632996  0.2500000000000000
  0.0528970807367012  0.6137692525966330  0.2500000000000000
  0.3862304140700346  0.6137692525966330  0.2500000000000000
  0.7195637474033678  0.6137692525966330  0.2500000000000000
  0.0528970807367012  0.9471025859299662  0.2500000000000000
  0.3862304140700346  0.9471025859299662  0.2500000000000000
  0.7195637474033678  0.9471025859299662  0.2500000000000000
  0.2804359192632996  0.0528970807367012  0.2500000000000000
  0.6137692525966330  0.0528970807367012  0.2500000000000000
  0.9471025859299662  0.0528970807367012  0.2500000000000000
  0.2804359192632996  0.3862304140700346  0.2500000000000000
  0.6137692525966330  0.3862304140700346  0.2500000000000000
  0.9471025859299662  0.3862304140700346  0.2500000000000000
  0.2804359192632996  0.7195637474033678  0.2500000000000000
  0.6137692525966330  0.7195637474033678  0.2500000000000000
  0.9471025859299662  0.7195637474033678  0.2500000000000000
  0.2275385052041088  0.2804359192741449  0.2500000000000000
  0.5608718385374420  0.2804359192741449  0.2500000000000000
  0.8942051718707754  0.2804359192741449  0.2500000000000000
  0.2275385052041088  0.6137692526074782  0.2500000000000000
  0.5608718385374420  0.6137692526074782  0.2500000000000000
  0.8942051718707754  0.6137692526074782  0.2500000000000000
  0.2275385052041088  0.9471025859408115  0.2500000000000000
  0.5608718385374420  0.9471025859408115  0.2500000000000000
  0.8942051718707754  0.9471025859408115  0.2500000000000000
  0.2804359192741449  0.2275385052041088  0.2500000000000000
  0.6137692526074782  0.2275385052041088  0.2500000000000000
  0.9471025859408115  0.2275385052041088  0.2500000000000000
  0.2804359192741449  0.5608718385374420  0.2500000000000000
  0.6137692526074782  0.5608718385374420  0.2500000000000000
  0.9471025859408115  0.5608718385374420  0.2500000000000000
  0.2804359192741449  0.8942051718707754  0.2500000000000000
  0.6137692526074782  0.8942051718707754  0.2500000000000000
  0.9471025859408115  0.8942051718707754  0.2500000000000000
