generated by phonopy
   1.0
     8.9616968680503000    5.1740377034770209    0.0000000000000000
    -8.9616968680503000    5.1740377034770209    0.0000000000000000
     0.0000000000000000    0.0000000000000000    8.5202213998397571
B C
   8   24
Direct
  0.1666665000000016  0.3333329999999997  0.2500000000000000
  0.6666665000000016  0.3333329999999997  0.2500000000000000
  0.1666665000000018  0.8333329999999998  0.2500000000000000
  0.6666665000000016  0.8333329999999997  0.2500000000000000
  0.3333329999999997  0.1666665000000016  0.2500000000000000
  0.8333329999999997  0.1666665000000017  0.2500000000000000
  0.3333329999999997  0.6666665000000016  0.2500000000000000
  0.8333329999999997  0.6666665000000016  0.2500000000000000
  0.0793456210887840  0.1594377681498761  0.2507460259560380
  0.5793456210887840  0.1586917421938382  0.2500000000000000
  0.0793456210887840  0.6586917421938381  0.2500000000000000
  0.5793456210887841  0.6586917421938382  0.2500000000000000
  0.1586917421938381  0.0793456210887840  0.2500000000000000
  0.6586917421938381  0.0793456210887840  0.2500000000000000
  0.1586917421938382  0.5793456210887840  0.2500000000000000
  0.6586917421938382  0.5793456210887841  0.2500000000000000
  0.0793456211050519  0.4206538788949494  0.2500000000000000
  0.5793456211050518  0.4206538788949494  0.2500000000000000
  0.0793456211050520  0.9206538788949493  0.2500000000000000
  0.5793456211050518  0.9206538788949494  0.2500000000000000
  0.4206538788949494  0.0793456211050519  0.2500000000000000
  0.9206538788949492  0.0793456211050519  0.2500000000000000
  0.4206538788949494  0.5793456211050518  0.2500000000000000
  0.9206538788949494  0.5793456211050518  0.2500000000000000
  0.3413077578061632  0.4206538789112173  0.2500000000000000
  0.8413077578061633  0.4206538789112174  0.2500000000000000
  0.3413077578061633  0.9206538789112175  0.2500000000000000
  0.8413077578061632  0.9206538789112173  0.2500000000000000
  0.4206538789112173  0.3413077578061632  0.2500000000000000
  0.9206538789112174  0.3413077578061632  0.2500000000000000
  0.4206538789112174  0.8413077578061633  0.2500000000000000
  0.9206538789112173  0.8413077578061632  0.2500000000000000
