BC3 with lattice parameter 5.174Ang, len
   1.00000000000000     
     4.4798711076247866    2.5864545920967479    0.0000000000000000
    -4.4798711076247866    2.5864545920967479   -0.0000000000000000
    -0.0000000000000000    0.0000000000000000   14.0600852755250738
   B    C 
     2     6
Direct
  0.3333330000000032  0.6666659999999993  0.2500000000000000
  0.6666659999999993  0.3333330000000032  0.2500000000000000
  0.1588017335100943  0.3176044670530834  0.2500000000000000
  0.3176044670530834  0.1588017335100943  0.2500000000000000
  0.1588017335429845  0.8411972664570181  0.2500000000000000
  0.8411972664570181  0.1588017335429845  0.2500000000000000
  0.6823945329469192  0.8411972664899086  0.2500000000000000
  0.8411972664899086  0.6823945329469193  0.2500000000000000
 
  0.00000000E+00  0.00000000E+00  0.00000000E+00
  0.00000000E+00  0.00000000E+00  0.00000000E+00
  0.00000000E+00  0.00000000E+00  0.00000000E+00
  0.00000000E+00  0.00000000E+00  0.00000000E+00
  0.00000000E+00  0.00000000E+00  0.00000000E+00
  0.00000000E+00  0.00000000E+00  0.00000000E+00
  0.00000000E+00  0.00000000E+00  0.00000000E+00
  0.00000000E+00  0.00000000E+00  0.00000000E+00
