BC3 with lattice parameter 5.174Ang, len
   1.00000000000000     
     4.4811335066149356    2.5871834383196068    0.0000000000000000
    -4.4811335066149356    2.5871834383196068   -0.0000000000000000
    -0.0000000000000000   -0.0000000000000000   14.6787129718015983
   B    C 
     2     6
Direct
  0.3333330000000032  0.6666659999999993  0.2500000000000000
  0.6666659999999993  0.3333330000000032  0.2500000000000000
  0.1588161861926686  0.3176333724182147  0.2500000000000000
  0.3176333724182147  0.1588161861926686  0.2500000000000000
  0.1588161862255414  0.8411828137744611  0.2500000000000000
  0.8411828137744611  0.1588161862255414  0.2500000000000000
  0.6823656275817881  0.8411828138073340  0.2500000000000000
  0.8411828138073340  0.6823656275817882  0.2500000000000000
 
  0.00000000E+00  0.00000000E+00  0.00000000E+00
  0.00000000E+00  0.00000000E+00  0.00000000E+00
  0.00000000E+00  0.00000000E+00  0.00000000E+00
  0.00000000E+00  0.00000000E+00  0.00000000E+00
  0.00000000E+00  0.00000000E+00  0.00000000E+00
  0.00000000E+00  0.00000000E+00  0.00000000E+00
  0.00000000E+00  0.00000000E+00  0.00000000E+00
  0.00000000E+00  0.00000000E+00  0.00000000E+00
