BC3 with lattice parameter 5.174Ang, len
   1.00000000000000     
     4.4396338967202533    2.5632236328628735   -0.0000000000000000
    -4.4396338967202533    2.5632236328628735    0.0000000000000000
     0.0000000000000000   -0.0000000000000000   14.9832313355993101
   B    C 
     2     6
Direct
  0.3333330000000032  0.6666659999999993  0.2500000000000000
  0.6666659999999993  0.3333330000000032  0.2500000000000000
  0.1435768820829387  0.2871547641658820  0.2500000000000000
  0.2871547641658820  0.1435768820829387  0.2500000000000000
  0.1435768820829387  0.8564221179170638  0.2500000000000000
  0.8564221179170638  0.1435768820829387  0.2500000000000000
  0.7128442358341205  0.8564221179170638  0.2500000000000000
  0.8564221179170638  0.7128442358341205  0.2500000000000000
 
  0.00000000E+00  0.00000000E+00  0.00000000E+00
  0.00000000E+00  0.00000000E+00  0.00000000E+00
  0.00000000E+00  0.00000000E+00  0.00000000E+00
  0.00000000E+00  0.00000000E+00  0.00000000E+00
  0.00000000E+00  0.00000000E+00  0.00000000E+00
  0.00000000E+00  0.00000000E+00  0.00000000E+00
  0.00000000E+00  0.00000000E+00  0.00000000E+00
  0.00000000E+00  0.00000000E+00  0.00000000E+00
