BC3 with lattice parameter 5.174Ang, len
   1.00000000000000     
     4.4781690647365417    2.5854719174050476   -0.0000000000000000
    -4.4781690647365417    2.5854719174050476   -0.0000000000000000
     0.0000000000000000   -0.0000000000000000   13.9014825421525039
   B    C 
     2     6
Direct
  0.3333330000000032  0.6666659999999993  0.2500000000000000
  0.6666659999999993  0.3333330000000032  0.2500000000000000
  0.1586209527968086  0.3172429056263866  0.2500000000000000
  0.3172429056263865  0.1586209527968086  0.2500000000000000
  0.1586209528295734  0.8413780471704292  0.2500000000000000
  0.8413780471704293  0.1586209528295734  0.2500000000000000
  0.6827560943736162  0.8413780472031943  0.2500000000000000
  0.8413780472031943  0.6827560943736162  0.2500000000000000
 
  0.00000000E+00  0.00000000E+00  0.00000000E+00
  0.00000000E+00  0.00000000E+00  0.00000000E+00
  0.00000000E+00  0.00000000E+00  0.00000000E+00
  0.00000000E+00  0.00000000E+00  0.00000000E+00
  0.00000000E+00  0.00000000E+00  0.00000000E+00
  0.00000000E+00  0.00000000E+00  0.00000000E+00
  0.00000000E+00  0.00000000E+00  0.00000000E+00
  0.00000000E+00  0.00000000E+00  0.00000000E+00
