BC3 with lattice parameter 5.174Ang, len
   1.00000000000000     
     4.4814441275153554    2.5873627753388959   -0.0000000000000000
    -4.4814441275153554    2.5873627753388959   -0.0000000000000000
     0.0000000000000000   -0.0000000000000000   14.6842451702756644
   B    C 
     2     6
Direct
  0.3333330000000032  0.6666659999999993  0.2500000000000000
  0.6666659999999993  0.3333330000000032  0.2500000000000000
  0.1587964153823587  0.3175938307974652  0.2500000000000000
  0.3175938307974652  0.1587964153823587  0.2500000000000000
  0.1587964154151019  0.8412025845849006  0.2500000000000000
  0.8412025845849007  0.1587964154151019  0.2500000000000000
  0.6824051692025374  0.8412025846176441  0.2500000000000000
  0.8412025846176441  0.6824051692025374  0.2500000000000000
 
  0.00000000E+00  0.00000000E+00  0.00000000E+00
  0.00000000E+00  0.00000000E+00  0.00000000E+00
  0.00000000E+00  0.00000000E+00  0.00000000E+00
  0.00000000E+00  0.00000000E+00  0.00000000E+00
  0.00000000E+00  0.00000000E+00  0.00000000E+00
  0.00000000E+00  0.00000000E+00  0.00000000E+00
  0.00000000E+00  0.00000000E+00  0.00000000E+00
  0.00000000E+00  0.00000000E+00  0.00000000E+00
