BC3 with lattice parameter 5.174Ang, len
   1.00000000000000     
     4.4805857097409580    2.5868671677169552   -0.0000000000000000
    -4.4805857097409580    2.5868671677169552   -0.0000000000000000
     0.0000000000000000   -0.0000000000000000   14.9274176815037336
   B    C 
     2     6
Direct
  0.3333330000000032  0.6666659999999993  0.2500000000000000
  0.6666659999999993  0.3333330000000032  0.2500000000000000
  0.1586954630819106  0.3173919261965547  0.2500000000000000
  0.3173919261965546  0.1586954630819106  0.2500000000000000
  0.1586954631146394  0.8413035368853631  0.2500000000000000
  0.8413035368853632  0.1586954631146394  0.2500000000000000
  0.6826070738034480  0.8413035369180921  0.2500000000000000
  0.8413035369180921  0.6826070738034480  0.2500000000000000
 
  0.00000000E+00  0.00000000E+00  0.00000000E+00
  0.00000000E+00  0.00000000E+00  0.00000000E+00
  0.00000000E+00  0.00000000E+00  0.00000000E+00
  0.00000000E+00  0.00000000E+00  0.00000000E+00
  0.00000000E+00  0.00000000E+00  0.00000000E+00
  0.00000000E+00  0.00000000E+00  0.00000000E+00
  0.00000000E+00  0.00000000E+00  0.00000000E+00
  0.00000000E+00  0.00000000E+00  0.00000000E+00
