BC3 with lattice parameter 5.174Ang, len
   1.00000000000000     
     4.4777330154569226    2.5852201642947561    0.0000000000000000
    -4.4777330154569226    2.5852201642947561   -0.0000000000000000
    -0.0000000000000000    0.0000000000000000   13.7651377468408480
   B    C 
     2     6
Direct
  0.3333330000000032  0.6666659999999993  0.2500000000000000
  0.6666659999999993  0.3333330000000032  0.2500000000000000
  0.1586282180757610  0.3172574361844063  0.2500000000000000
  0.3172574361844063  0.1586282180757610  0.2500000000000000
  0.1586282181086407  0.8413707818913619  0.2500000000000000
  0.8413707818913619  0.1586282181086407  0.2500000000000000
  0.6827415638155964  0.8413707819242419  0.2500000000000000
  0.8413707819242419  0.6827415638155965  0.2500000000000000
 
  0.00000000E+00  0.00000000E+00  0.00000000E+00
  0.00000000E+00  0.00000000E+00  0.00000000E+00
  0.00000000E+00  0.00000000E+00  0.00000000E+00
  0.00000000E+00  0.00000000E+00  0.00000000E+00
  0.00000000E+00  0.00000000E+00  0.00000000E+00
  0.00000000E+00  0.00000000E+00  0.00000000E+00
  0.00000000E+00  0.00000000E+00  0.00000000E+00
  0.00000000E+00  0.00000000E+00  0.00000000E+00
