BC3 with lattice parameter 5.174Ang, len
   1.00000000000000     
     4.4808484340251500    2.5870188517385104    0.0000000000000000
    -4.4808484340251500    2.5870188517385104    0.0000000000000000
     0.0000000000000000    0.0000000000000000    8.5202213998397571
   B    C 
     2     6
Direct
  0.3333330000000032  0.6666659999999993  0.2500000000000000
  0.6666659999999993  0.3333330000000032  0.2500000000000000
  0.1586912421775663  0.3173834843876744  0.2500000000000000
  0.3173834843876744  0.1586912421775663  0.2500000000000000
  0.1586912422101036  0.8413077577898990  0.2500000000000000
  0.8413077577898990  0.1586912422101036  0.2500000000000000
  0.6826155156123282  0.8413077578224365  0.2500000000000000
  0.8413077578224365  0.6826155156123284  0.2500000000000000
 
  0.00000000E+00  0.00000000E+00  0.00000000E+00
  0.00000000E+00  0.00000000E+00  0.00000000E+00
  0.00000000E+00  0.00000000E+00  0.00000000E+00
  0.00000000E+00  0.00000000E+00  0.00000000E+00
  0.00000000E+00  0.00000000E+00  0.00000000E+00
  0.00000000E+00  0.00000000E+00  0.00000000E+00
  0.00000000E+00  0.00000000E+00  0.00000000E+00
  0.00000000E+00  0.00000000E+00  0.00000000E+00
