BC3 with lattice parameter 5.174Ang, len
   1.00000000000000     
     4.4805813519796285    2.5868646518900715   -0.0000000000000000
    -4.4805813519796285    2.5868646518900715   -0.0000000000000000
     0.0000000000000000   -0.0000000000000000    8.4852056039961283
   B    C 
     2     6
Direct
  0.3333330000000032  0.6666659999999993  0.2500000000000000
  0.6666659999999993  0.3333330000000032  0.2500000000000000
  0.1586953627629872  0.3173917255583845  0.2500000000000000
  0.3173917255583845  0.1586953627629872  0.2500000000000000
  0.1586953627953926  0.8413036372046098  0.2500000000000000
  0.8413036372046099  0.1586953627953927  0.2500000000000000
  0.6826072744416181  0.8413036372370156  0.2500000000000000
  0.8413036372370156  0.6826072744416181  0.2500000000000000
 
  0.00000000E+00  0.00000000E+00  0.00000000E+00
  0.00000000E+00  0.00000000E+00  0.00000000E+00
  0.00000000E+00  0.00000000E+00  0.00000000E+00
  0.00000000E+00  0.00000000E+00  0.00000000E+00
  0.00000000E+00  0.00000000E+00  0.00000000E+00
  0.00000000E+00  0.00000000E+00  0.00000000E+00
  0.00000000E+00  0.00000000E+00  0.00000000E+00
  0.00000000E+00  0.00000000E+00  0.00000000E+00
