BC3 with lattice parameter 5.174Ang, len
   1.00000000000000     
     4.4786500922410832    2.5857496387015662   -0.0000000000000000
    -4.4786500922410832    2.5857496387015662   -0.0000000000000000
     0.0000000000000000   -0.0000000000000000   13.8290468192676617
   B    C 
     2     6
Direct
  0.3333330000000032  0.6666659999999993  0.2500000000000000
  0.6666659999999993  0.3333330000000032  0.2500000000000000
  0.1586110257559281  0.3172230515446158  0.2500000000000000
  0.3172230515446157  0.1586110257559281  0.2500000000000000
  0.1586110257886830  0.8413879742113195  0.2500000000000000
  0.8413879742113196  0.1586110257886831  0.2500000000000000
  0.6827759484553870  0.8413879742440747  0.2500000000000000
  0.8413879742440747  0.6827759484553870  0.2500000000000000
 
  0.00000000E+00  0.00000000E+00  0.00000000E+00
  0.00000000E+00  0.00000000E+00  0.00000000E+00
  0.00000000E+00  0.00000000E+00  0.00000000E+00
  0.00000000E+00  0.00000000E+00  0.00000000E+00
  0.00000000E+00  0.00000000E+00  0.00000000E+00
  0.00000000E+00  0.00000000E+00  0.00000000E+00
  0.00000000E+00  0.00000000E+00  0.00000000E+00
  0.00000000E+00  0.00000000E+00  0.00000000E+00
