BC3 with lattice parameter 5.174Ang, len
   1.00000000000000     
     4.4825886845478840    2.5880235855014835   -0.0000000000000000
    -4.4825886845478840    2.5880235855014835   -0.0000000000000000
     0.0000000000000000   -0.0000000000000000   14.3600151553049056
   B    C 
     2     6
Direct
  0.3333330000000032  0.6666659999999993  0.2500000000000000
  0.6666659999999993  0.3333330000000032  0.2500000000000000
  0.1589309983959582  0.3178629968246790  0.2500000000000000
  0.3178629968246789  0.1589309983959582  0.2500000000000000
  0.1589309984287161  0.8410680015712864  0.2500000000000000
  0.8410680015712865  0.1589309984287162  0.2500000000000000
  0.6821360031753236  0.8410680016040445  0.2500000000000000
  0.8410680016040445  0.6821360031753236  0.2500000000000000
 
  0.00000000E+00  0.00000000E+00  0.00000000E+00
  0.00000000E+00  0.00000000E+00  0.00000000E+00
  0.00000000E+00  0.00000000E+00  0.00000000E+00
  0.00000000E+00  0.00000000E+00  0.00000000E+00
  0.00000000E+00  0.00000000E+00  0.00000000E+00
  0.00000000E+00  0.00000000E+00  0.00000000E+00
  0.00000000E+00  0.00000000E+00  0.00000000E+00
  0.00000000E+00  0.00000000E+00  0.00000000E+00
