BC3 with lattice parameter 5.174Ang, len
   1.00000000000000     
     4.4981922148605831    2.5970322859433712   -0.0000000000000000
    -4.4981922148605831    2.5970322859433712   -0.0000000000000000
     0.0000000000000000   -0.0000000000000000    9.2458090223418310
   B    C 
     2     6
Direct
  0.3333330000000032  0.6666659999999993  0.2500000000000000
  0.6666659999999993  0.3333330000000032  0.2500000000000000
  0.1583147085303591  0.3166304170930894  0.2500000000000000
  0.3166304170930894  0.1583147085303591  0.2500000000000000
  0.1583147085627256  0.8416842914372770  0.2500000000000000
  0.8416842914372771  0.1583147085627256  0.2500000000000000
  0.6833685829069134  0.8416842914696436  0.2500000000000000
  0.8416842914696436  0.6833685829069134  0.2500000000000000
 
  0.00000000E+00  0.00000000E+00  0.00000000E+00
  0.00000000E+00  0.00000000E+00  0.00000000E+00
  0.00000000E+00  0.00000000E+00  0.00000000E+00
  0.00000000E+00  0.00000000E+00  0.00000000E+00
  0.00000000E+00  0.00000000E+00  0.00000000E+00
  0.00000000E+00  0.00000000E+00  0.00000000E+00
  0.00000000E+00  0.00000000E+00  0.00000000E+00
  0.00000000E+00  0.00000000E+00  0.00000000E+00
